(Si O2)81  (P1) ~ 3x3x3Supersel (VASP)  
   1.00000000000000     
    14.9916000000000000    0.0000000000000000    0.0000000000000000
    -7.4957993700000003   12.9831068100000007    0.0000000000000000
     0.0000006000000000    0.0000010400000000   16.3712997000000016
   O    Si
   162    81
Direct
  0.0672711579475916  0.1552875414197281  0.9841757482154760
  0.2603500539150035  0.0336895495355719  0.1028706293972515
  0.1910297766043296  0.2713417508399294  0.2316359567299108
  0.2751773743400851  0.2024437755749462  0.0070529438719303
  0.0205830740955576  0.2323863931474346  0.1372310177578392
  0.1941502101720569  0.0971868612871292  0.2303107952696365
  0.0547886461919123  0.0979775023101063  0.3487007161335619
  0.3138137748111710  0.0906290121121058  0.4507545476397318
  0.1967845204565178  0.2670704032295489  0.5699722539746553
  0.2916975466253042  0.2203364298104150  0.3231857881516365
  0.0598413951390659  0.2553619978348039  0.4522240549136956
  0.1550522600370325  0.0737857781140091  0.5458248379081250
  0.0931370090238555  0.0948881731083400  0.6958787540578836
  0.2643648581563109  0.0945832346571797  0.7739741473312660
  0.2481681522608599  0.2869362740377234  0.8864251517433395
  0.3167012784572936  0.2692192113572680  0.6796673662883136
  0.0578034296746953  0.1943840631744341  0.8132203757476345
  0.1603936537167389  0.0647099934313088  0.8952949240488184
  0.0314517019958186  0.4858418851251822  0.9738963337861934
  0.2531096418248564  0.3413200912992980  0.0983605694049260
  0.2203126491089057  0.6391572398402404  0.2316345173554119
  0.2115573514703804  0.4506338618647566  0.0041028686529614
  0.1312975096475724  0.5955711829367423  0.1072665025386601
  0.1334338915976348  0.4156089977170328  0.1885610606907484
  0.0863435498209412  0.4615189682320413  0.3236425886103957
  0.2781515230294422  0.3849470739950104  0.4591961054653733
  0.2363618261501852  0.5940519854792505  0.5803726287609409
  0.2621829992223275  0.4966320205380758  0.2907887960763058
  0.1140196705336912  0.6049384726172058  0.4371220975245378
  0.1202522610122356  0.3745335812277454  0.5918133012387938
  0.0404298797613053  0.4363199687158125  0.6899866286774159
  0.2166744690057464  0.3531838261200754  0.7472936027041494
  0.2043670181702328  0.5714912286855633  0.8913410724174410
  0.2511022338524228  0.5245450399871885  0.7205953700869215
  0.1373285988670265  0.5903035429197443  0.7599295064720558
  0.0859401100937894  0.3622156063225276  0.8726242253947171
  0.0618576841667662  0.8251561358740022  0.9866479277287132
  0.2595611935989340  0.7959094493320032  0.1345732099062109
  0.1832015103847354  0.9177412096469906  0.2106640929989892
  0.2482535620896475  0.8508719992875837  0.9961695873931883
  0.0817910046156261  0.9551722932542800  0.0867225700965176
  0.0899886255756897  0.7209260096100972  0.2294334737709719
  0.0590610097227253  0.8053608625623395  0.3379595916621673
  0.3248015805346139  0.7866386469931744  0.4940730387298171
  0.2472282883101340  0.9420222513814805  0.5630377332891524
  0.2504273080849077  0.8467757160878262  0.3499148287354223
  0.1191097974855135  0.9404347781914660  0.4406690552392677
  0.1394825144683403  0.7284377413057070  0.5426565080845855
  0.0787669218980672  0.8339776608735368  0.6444766596199674
  0.3168884280578054  0.7660224600078396  0.8317704529770743
  0.1917588448978021  0.9168575634729097  0.8931415897884648
  0.2397990646996726  0.7534204055082433  0.6603067672650467
  0.0453716603994275  0.9021260646661647  0.8111050931903674
  0.0962193237458206  0.7167968135392982  0.8557326639951022
  0.4213575700856657  0.1861060097635255  0.9785742093984434
  0.6438776148061162  0.1173588802432185  0.1476161401398408
  0.5703828192268947  0.2525964250588724  0.2454553391275611
  0.5895229364460753  0.1912113192427793  0.9804847497308512
  0.4186797804303557  0.2390913478247967  0.1473788160320359
  0.4675761717409992  0.0788687297670328  0.2439973620893361
  0.4386356822700361  0.1854251141543346  0.3532145480285498
  0.6092532701008951  0.0704879813717924  0.4846765627323004
  0.5850876719699006  0.2698486746427214  0.5607958880226711
  0.6269574964726049  0.1840877761418162  0.3534875188240646
  0.4021952311308962  0.2908698015140690  0.4529168900033454
  0.4505192522141067  0.0760114377308545  0.5632867026973151
  0.3898991374831915  0.1530731557142950  0.6515566203445071
  0.6304309224668945  0.0648942475744562  0.7247731852210590
  0.5393993189729197  0.2972347346393385  0.8759452704475712
  0.6005540502192870  0.2061860130236560  0.6894605988009664
  0.3875950363124388  0.2510494785403473  0.8029557519664180
  0.5335442914264166  0.1221249812972320  0.8155013174439490
  0.3831337848009710  0.4273995126070764  0.9834069054138203
  0.5662365535610157  0.3481747014590857  0.0829110550446900
  0.5256847800462678  0.5849502144665297  0.2170360069034822
  0.5956836160050649  0.5263672077884515  0.0006267264399849
  0.4133202151369518  0.5579596375812561  0.0941463911950674
  0.5064392801811083  0.3968574181646226  0.2611788180025438
  0.4098368853215917  0.4773231704694876  0.3592416732013126
  0.5942398899931433  0.3878140253679258  0.4358770331629147
  0.4671823654236238  0.5746894253463762  0.5343540171045331
  0.5843903563170156  0.5545240461162169  0.3507896118335017
  0.3736974924554489  0.6125510634386501  0.3977797798491098
  0.4816452339949917  0.4013214184326692  0.5600238335185103
  0.3877184290558813  0.4800415992758485  0.6722118647781768
  0.5615795587932109  0.3622208661102965  0.7211576843929857
  0.5378645678086091  0.6193816364961763  0.9022113670178425
  0.5842229515555323  0.5471480392744554  0.6589519046931400
  0.3975356598902616  0.5331909438733233  0.8138194760669643
  0.5220970802315766  0.4599649851914349  0.8290618967304937
  0.4000760588858621  0.8165884416312438  0.0085392819515572
  0.5501048563988189  0.7362504422880101  0.0966197676536012
  0.4696125635870961  0.9009763595450393  0.2018002323470212
  0.5712553495941103  0.8068757697541130  0.9562919719034575
  0.4263947025689330  0.9991153771487159  0.0913958364552569
  0.4415685496379861  0.7060865796207328  0.2176700719912524
  0.4201978285698201  0.8223757158515559  0.3544071807150440
  0.5907236913335839  0.7700738364977003  0.4424340051683595
  0.4816919820884398  0.9337981455141781  0.5933048579340101
  0.5838443987946444  0.8075630202666094  0.2960171452511448
  0.4189078126680519  0.9768067482182414  0.4287419988165002
  0.4483201091229272  0.7301963888712483  0.5510634099039565
  0.4291258635606316  0.8017066936939430  0.6847002597081915
  0.5383171666380011  0.7449272212665137  0.7654327519661973
  0.5208995666346359  0.9169066200151820  0.8422406906685261
  0.6066809909882003  0.8815355900819357  0.6281837482082305
  0.3786754328678466  0.9129580299676607  0.7654247568018366
  0.4104356778436835  0.7101206623919991  0.9100786600612245
  0.7291216621961982  0.1516125409603737  0.9832062391798149
  0.9222862524786263  0.0720607842466386  0.0940367495070191
  0.8224057025191815  0.2359610043875025  0.1852589804209235
  0.9138890491563436  0.1914172373926840  0.9975542263153347
  0.7257949460644205  0.2914393101999068  0.1027268241592715
  0.7872372345700968  0.0352581685471207  0.2013373164822776
  0.7549008021182378  0.1121834522575605  0.3228383901722131
  0.9031714745797481  0.0294376596726215  0.4320593473133547
  0.9172377493277160  0.2672081878151972  0.5426346559306416
  0.9468597408621136  0.1897306303407973  0.3063597826066634
  0.7522932068435737  0.2511144624863492  0.4678416736508003
  0.7679788097498129  0.0684888517064308  0.5732500900387838
  0.8107598539043617  0.2075949209401471  0.6889388975557649
  0.8865217278740083  0.0324556434362283  0.7528675402092032
  0.8689680942736828  0.2818351841715567  0.8851463223190859
  0.9692428211716678  0.1946237201760797  0.6540786844982112
  0.6986063951380581  0.2961764559577128  0.8052086080721069
  0.7665979017025337  0.0720322824371045  0.8756256703194861
  0.7516388502111281  0.4709589870081832  0.0247002879517399
  0.9415024179238588  0.4298288272458875  0.1683844966601262
  0.8410946276609698  0.5492542916595420  0.2101781069647876
  0.9354518029328174  0.5587179856889531  0.0506494407482435
  0.7071911683140404  0.5880624686633407  0.1415931028055695
  0.8220041170456547  0.3799375324960409  0.2853272833984025
  0.7613125339796000  0.5370235894882052  0.3670846054935030
  0.9337769902555216  0.4133446312602468  0.4292563929799923
  0.8730317252623305  0.5858694813263362  0.5307510444003649
  0.9555782961041472  0.5587085059410530  0.3431727450032680
  0.7080107225196695  0.6040063973497318  0.4750489226999512
  0.8327840815635164  0.3909747061367591  0.5607078461698259
  0.7434788833718214  0.4584098505826033  0.6746013086886945
  0.9349458779106113  0.4697392712537875  0.7859572172817776
  0.8544823083041614  0.6037467466514651  0.8962234395962991
  0.9618747085354593  0.5599494502140689  0.6547664096994716
  0.7186143282254660  0.5902966775660747  0.7809211504018568
  0.8494519931469359  0.4414335129279812  0.9074323454783609
  0.7046365402513580  0.7560522507435038  0.9874036364159463
  0.9183820178555004  0.7578067131220262  0.1305186510616613
  0.8722657318695868  0.9261761599318256  0.1926501425247896
  0.9168173222624613  0.8829211153741098  0.9977366273179465
  0.7452816300973113  0.9124571365135453  0.0845138513308107
  0.8133214859016437  0.7190991477447684  0.2522299527854698
  0.7589653084130102  0.8362192999353114  0.3206322512592634
  0.9258330979010367  0.7615713020631155  0.4298418297443102
  0.8112248086825828  0.8713084180753273  0.5302521648035923
  0.9606915032465342  0.9124293353648062  0.3355598177062792
  0.7270333558755746  0.9743732759396878  0.4215017364418371
  0.8228090154228188  0.7322614701781941  0.5793253846363829
  0.6944592033002360  0.7675125364467509  0.6636622635931002
  0.9587778069345191  0.7381798762397541  0.7484152493857388
  0.7944815301798210  0.9189517381576723  0.9014392113968743
  0.8945462558552335  0.8633139794652716  0.6861331304724225
  0.6867828433635425  0.9313124105069502  0.7578492470069070
  0.8368325545288217  0.7745639194664412  0.8400772556841875
  0.1711537809860556  0.9973168941407344  0.1652774622520662
  0.1727569536926096  0.1688735220660097  0.2894573223324625
  0.9905413299991077  0.1759822877898022  0.0572496972755402
  0.2046214165084900  0.0060327143839084  0.5071557343587733
  0.1837981567158384  0.1712652717963567  0.6260801056930012
  0.9881991715996883  0.1541610897277849  0.3866866169798773
  0.1680418602844261  0.9968272886104752  0.8344601348856237
  0.1715709049392046  0.1673878661755470  0.9498031619833337
  0.9950192640766662  0.1323717535603987  0.7282113511958183
  0.1510138157397107  0.3251808697315123  0.1599817919611246
  0.1763121310104931  0.5098411463911970  0.2532007840436822
  0.0152297464623188  0.5028336885180501  0.0725162683989825
  0.1618604710542236  0.3216875124060054  0.5153885108637781
  0.1595927870892830  0.4778223822153163  0.6410290526759688
  0.0243682180802355  0.5112127151038107  0.3820856179683710
  0.1626244624375321  0.3204367602699651  0.8313871920951498
  0.1246807592635403  0.4485099623579746  0.9400087435312562
  0.0351582688609473  0.5350829103677835  0.7234430323497767
  0.1582227515032270  0.6880983787337888  0.1711013874747533
  0.1428783524179831  0.8363563774764506  0.2806819291135255
  0.9990011545600692  0.8621413718615788  0.0445173955794460
  0.2182814696545471  0.6758843688524074  0.5025674015836458
  0.1729948022879753  0.8179391190749740  0.6113948559512681
  0.0208730093978721  0.8653298471152879  0.3897956765524395
  0.1998334393551003  0.6510649047042484  0.8374087886578625
  0.1436205434407536  0.7989430233555260  0.9304913463218616
  0.9992973580558561  0.8579638145070526  0.7238174047944372
  0.5054267383713466  0.0251036453843279  0.1659838412116671
  0.5248423205881113  0.1707144206792709  0.3200300806542410
  0.3449832859828584  0.1788781295445035  0.0643009929866812
  0.4954503628482612  0.0223292961392478  0.5131147371783217
  0.5073640339125982  0.1811882533123776  0.6221577395149781
  0.3470077717874840  0.1996553060194433  0.3919900446920034
  0.5088624560674735  0.0048818340163863  0.7882766666647352
  0.5088408737223370  0.1947532366620449  0.9213696424509534
  0.3390994797456175  0.1898013535765157  0.7229318527447512
  0.5170257739321720  0.3039472393298661  0.1936009251055960
  0.5034175744894297  0.4946297442774787  0.2830752372233603
  0.3225225573444043  0.4542596369492989  0.0439618285366952
  0.5060446964474604  0.3236864863533140  0.5070345117485483
  0.4819948332850372  0.4976697606157358  0.6043169925555623
  0.3091323657171250  0.4843684153584082  0.3878745130879000
  0.5027509609367546  0.3481002245847322  0.7979666576716388
  0.4966775677961503  0.4969257554484006  0.9321991212741386
  0.3206225859929536  0.4735694247060943  0.7484764179276892
  0.4900761042647407  0.6577571327661254  0.1535781465646740
  0.4666008109433543  0.8284394439725830  0.2641949804929515
  0.3338683921080505  0.8714479062975006  0.0661175541747619
  0.4691531880983268  0.6675907617259450  0.4769631118649126
  0.4927639951362844  0.8340774502259427  0.6102356669816876
  0.3396191070240875  0.8487825321053795  0.4081177217557501
  0.4653861623174816  0.6576759766076633  0.8558895154538843
  0.4732254239340022  0.8214612606542427  0.9313691471243282
  0.3480216538993637  0.8146144056201622  0.7263166956619627
  0.8305820001476476  0.9781588179938994  0.1363415541542605
  0.8417504930009768  0.1507203342308330  0.2509176138928314
  0.6749975090746982  0.1882103218793800  0.0546213957965802
  0.7882083707383823  0.9780911830655052  0.5062003254262210
  0.8623582670377000  0.1770538285671945  0.6149367517712464
  0.6979114454579937  0.1475563665134191  0.4049550238989518
  0.7850968764537335  0.9915809139360985  0.8167006356718460
  0.8226421222963703  0.1743529146420361  0.9372341196113108
  0.6832292126852944  0.2017489098675795  0.7377530437456724
  0.8124754236650691  0.3262000805615649  0.1893586612017757
  0.8385703482318868  0.5143103659967196  0.3007871583072758
  0.6621362475776548  0.4928144523152065  0.0728363475365993
  0.8691772295886531  0.3390195009305428  0.4935424992232467
  0.8554329931251193  0.4955985277728583  0.6146466798166396
  0.6555390624820902  0.5138300489014277  0.4053491294792508
  0.8210472903675626  0.3607705037473865  0.8255915727712122
  0.8634290892992867  0.5247195150568317  0.9624383422437379
  0.6454308092100376  0.4901499816821124  0.7101159882253264
  0.8238341536289641  0.6520629884189648  0.1761034937561393
  0.8582525354940637  0.8486125881920258  0.2784368953926245
  0.6378599974563488  0.7961593790850203  0.0300593708341855
  0.8343153051644826  0.6609309455619610  0.5036834333810019
  0.7980196903766649  0.8092929183855808  0.6176411516188842
  0.6737519043544035  0.8550634699838655  0.3726307259233377
  0.8418928935385713  0.6717541831460783  0.8186830509233126
  0.8207962526961745  0.8282416597165343  0.9285018843465013
  0.6307402232341542  0.8327260056736049  0.7034224548119400
 
  0.22740054E-01  0.21888761E-01 -0.22937285E-01
  0.45387786E-02  0.62177765E-03  0.24092743E-01
 -0.10502812E-01  0.18875904E-01  0.87701997E-03
  0.30341874E-01  0.10931100E-01 -0.18712870E-01
  0.17280399E-02 -0.36794146E-01  0.85209617E-02
 -0.69949927E-03 -0.12615173E-01 -0.81634984E-02
  0.31285041E-02  0.23947598E-01  0.10192872E-01
  0.63361409E-02 -0.11340915E-01 -0.57043307E-02
 -0.14829759E-01  0.29983983E-02  0.12099916E-01
 -0.50112455E-02  0.28933625E-02 -0.88296242E-02
  0.16456049E-01  0.54904792E-02  0.18219359E-01
  0.13790812E-01  0.28581198E-02  0.50190167E-02
 -0.13505736E-01 -0.36477884E-02 -0.11909449E-01
 -0.94749681E-02 -0.33938011E-02 -0.15102586E-01
 -0.16814469E-02 -0.16169618E-01  0.93111204E-02
  0.60305239E-02  0.79913341E-02 -0.68962249E-04
  0.23016328E-01  0.70129581E-02  0.18544542E-01
 -0.12648284E-01 -0.21637963E-01  0.26503728E-02
 -0.73588036E-02 -0.30393779E-01  0.16910302E-01
  0.16204353E-01 -0.77548853E-03 -0.23438819E-02
 -0.64099914E-03 -0.12322167E-01  0.25570936E-01
  0.27833223E-01 -0.81738000E-02  0.83207200E-02
  0.57899625E-02  0.20197376E-01  0.14071187E-01
  0.62328194E-02  0.22113851E-01 -0.11736734E-01
 -0.18659208E-01  0.17435049E-01  0.28012961E-02
  0.91874231E-02 -0.52419458E-02  0.26033127E-01
 -0.21299579E-01  0.40492951E-02 -0.35522840E-02
 -0.26539453E-02 -0.11978071E-01  0.27876800E-01
  0.14855197E-01  0.11136981E-01 -0.15466003E-01
 -0.54515113E-02 -0.11675691E-01 -0.22335124E-01
 -0.12641137E-01  0.94743395E-02  0.57420647E-02
 -0.69052271E-02  0.57337989E-02 -0.24182189E-02
 -0.32439646E-01 -0.67512978E-03  0.18019653E-01
  0.22391139E-01 -0.25136154E-01  0.13771690E-02
 -0.96111239E-03 -0.11753148E-01 -0.17004947E-01
  0.93672066E-02  0.12297751E-01  0.27589967E-01
  0.10119344E-01 -0.12457638E-01  0.22893085E-01
  0.15970632E-01 -0.23662605E-02  0.19721551E-01
  0.20938970E-01  0.16354101E-01  0.17261055E-01
  0.10714240E-01  0.83399492E-02 -0.91068554E-02
  0.89700482E-02  0.81713950E-02  0.41399206E-02
 -0.23217995E-02  0.35080091E-02 -0.71889904E-02
  0.25160034E-01 -0.92216985E-02 -0.16846808E-02
 -0.50351569E-02 -0.81818285E-02 -0.13022958E-01
  0.26473664E-01 -0.59090258E-02 -0.24318776E-01
 -0.67576612E-02 -0.58182932E-02 -0.56192790E-02
  0.11892767E-02 -0.13985818E-01  0.58258334E-03
  0.16418733E-01  0.64378483E-02 -0.29533884E-02
 -0.19929910E-01 -0.22842972E-01  0.38518590E-02
 -0.70942793E-02  0.37118151E-02 -0.23590012E-01
  0.26375074E-02  0.10952595E-01  0.10884387E-01
  0.26008905E-01  0.72404733E-02 -0.49002470E-02
 -0.88569842E-02  0.16588482E-01  0.17874527E-03
  0.14073939E-01  0.11198364E-01 -0.17162185E-01
 -0.50166114E-02  0.36997001E-01 -0.47978448E-02
 -0.23888251E-01  0.16545075E-02  0.22095068E-01
 -0.19763402E-01  0.76302857E-03  0.29760111E-02
  0.32333828E-01 -0.14003756E-02  0.12098234E-01
 -0.55654308E-02 -0.78228765E-02 -0.79840558E-02
 -0.13895094E-01  0.20581601E-01 -0.21124447E-01
 -0.86246924E-02 -0.72511636E-02 -0.95142805E-02
 -0.24812627E-01  0.47600278E-02 -0.25138576E-03
 -0.18203507E-02  0.66334268E-02 -0.51763097E-02
  0.24829816E-01  0.10502975E-02  0.37065306E-02
 -0.42582415E-02  0.23131534E-02 -0.10249167E-01
 -0.41276300E-03 -0.56062217E-02 -0.63531693E-02
 -0.77614017E-02 -0.16463087E-01  0.79222537E-03
  0.15996162E-01  0.34989589E-02  0.19428546E-01
  0.68363638E-02  0.38069304E-01  0.10636851E-01
  0.10987764E-01 -0.13801339E-01  0.95250131E-02
  0.60256360E-02  0.19672472E-01 -0.25251899E-02
 -0.14515420E-01 -0.98248327E-02  0.10663001E-01
  0.17291564E-01 -0.32129062E-02 -0.10926811E-01
  0.81785439E-02  0.37649344E-02  0.11190887E-01
 -0.91932264E-02 -0.16880280E-01 -0.18103311E-01
 -0.14786409E-01 -0.16064792E-02  0.96499071E-02
 -0.10640622E-01  0.27409333E-01  0.23805198E-01
  0.31345376E-01 -0.10373185E-01 -0.78680682E-02
  0.17341206E-02  0.45922962E-02 -0.80844567E-02
  0.21881636E-01 -0.16197940E-01  0.16177245E-02
  0.16626453E-01 -0.52787715E-02 -0.77769084E-02
 -0.18315055E-01  0.13989692E-01  0.77567310E-03
  0.26111491E-02 -0.10236549E-01 -0.90118894E-02
 -0.45948689E-02  0.28188229E-01  0.23136032E-01
 -0.10986277E-01 -0.89463640E-02 -0.40897387E-02
  0.17705229E-01  0.75025062E-02 -0.15597909E-02
 -0.36338384E-02  0.14114039E-01  0.13283732E-01
  0.37280741E-02  0.34528331E-02  0.79554725E-02
  0.17377732E-01  0.34868201E-02  0.20556031E-01
 -0.68791833E-03  0.98764870E-02  0.83959322E-02
  0.28288818E-01 -0.32485948E-03 -0.23459892E-01
 -0.79725994E-02  0.12582644E-01 -0.34277924E-01
 -0.25887864E-01 -0.13539769E-01  0.60549634E-02
 -0.29092148E-01  0.51166136E-02 -0.12140555E-01
  0.33820068E-02  0.49920089E-04 -0.28860256E-02
 -0.71320588E-02 -0.15668825E-01 -0.82816213E-02
  0.89259050E-02  0.44171011E-02 -0.12281438E-01
 -0.67810813E-02 -0.16204704E-01 -0.28847752E-01
  0.64690375E-02  0.55174700E-02  0.38530005E-02
  0.27038709E-01  0.32326033E-02 -0.21307298E-02
 -0.24162627E-01  0.10674151E-01 -0.52196773E-02
 -0.66008877E-03 -0.14996966E-01 -0.74493820E-02
 -0.17331731E-01  0.81858277E-02 -0.12131414E-01
  0.26887742E-01 -0.17359453E-01 -0.15201326E-01
  0.13012872E-02  0.51728741E-02 -0.17194968E-01
  0.13153565E-01  0.15665089E-01  0.21611046E-01
  0.67513484E-02  0.60264271E-02  0.56710802E-02
 -0.21086143E-02 -0.18518243E-01  0.18115358E-01
 -0.22508860E-01  0.33566216E-02 -0.20776224E-01
 -0.72340142E-02 -0.32508813E-02  0.17590153E-01
  0.43594867E-02  0.11426137E-01  0.15297281E-01
  0.73695912E-02 -0.10463772E-01 -0.31306387E-01
  0.31751234E-01 -0.93836739E-02  0.11888137E-01
 -0.12423711E-01 -0.20184303E-03  0.20231642E-01
 -0.81952235E-02  0.21234890E-02 -0.14718383E-01
 -0.88854336E-02 -0.67502987E-02  0.44542246E-02
 -0.18413525E-02  0.12290955E-01 -0.92874411E-02
  0.76688779E-02  0.34256046E-01  0.10785041E-01
  0.15951365E-02 -0.19070421E-01 -0.12703185E-01
  0.76598789E-02 -0.21589949E-02 -0.21899950E-01
 -0.10361930E-02  0.24768442E-02  0.14627800E-01
  0.14730826E-01 -0.91028674E-02  0.97406932E-02
  0.19463284E-03  0.13914073E-02  0.11062376E-01
 -0.77831105E-02 -0.28738049E-01  0.20655351E-01
  0.18379469E-02  0.11801544E-01  0.89922829E-02
  0.25694405E-02  0.13037321E-01 -0.14838284E-01
 -0.96868819E-03  0.78145899E-02 -0.17319074E-01
 -0.11381510E-01 -0.94879791E-02 -0.18545712E-01
 -0.18748846E-02 -0.16633738E-01  0.13828552E-01
 -0.22045627E-02 -0.12989867E-01 -0.41457659E-02
  0.13720106E-01 -0.85181247E-02  0.50935667E-02
  0.23847183E-01  0.19043599E-01 -0.14918203E-01
  0.53992667E-02 -0.12541785E-01 -0.39261853E-01
 -0.28077092E-03 -0.20057063E-01  0.92785070E-02
 -0.25972939E-02  0.89156200E-02 -0.79074403E-02
  0.15052419E-01  0.85461569E-03  0.10915336E-01
 -0.30394586E-01  0.21516598E-01 -0.70280372E-02
  0.10232048E-01 -0.16705114E-01  0.51507409E-03
 -0.20595782E-01 -0.11702354E-01  0.50079738E-02
 -0.52946054E-02 -0.23273436E-01 -0.36803220E-02
  0.16390928E-01 -0.90004646E-02 -0.89660330E-02
  0.74037292E-02  0.51195196E-02 -0.12372687E-01
  0.13457543E-01 -0.16175139E-01  0.22872372E-01
  0.14855388E-01 -0.20666265E-03  0.12228356E-01
  0.34538079E-02 -0.33534278E-01  0.39129594E-03
 -0.49158937E-02 -0.13554094E-01  0.36386597E-02
 -0.38020388E-01  0.15928175E-01 -0.45395290E-03
  0.67985320E-02  0.90065504E-02  0.10532464E-02
 -0.65871773E-02  0.17085800E-01 -0.26302728E-01
 -0.66112262E-02  0.94956273E-02 -0.23587465E-01
 -0.17940767E-01  0.27344897E-02 -0.47640676E-03
 -0.14341311E-01 -0.22600708E-01  0.36826750E-02
  0.12469116E-01 -0.18478628E-01 -0.23958491E-01
 -0.50003107E-02 -0.14427707E-01 -0.24570249E-02
 -0.20722518E-01  0.20532858E-01  0.14305174E-01
  0.11918361E-01  0.24191124E-01  0.17587162E-02
  0.11150275E-01 -0.90603494E-02 -0.67758654E-02
 -0.96746947E-02  0.13538495E-02  0.88537705E-02
 -0.13895123E-01 -0.22794824E-01  0.59809936E-02
  0.19297166E-01 -0.33804491E-02  0.50362843E-03
 -0.19440853E-01 -0.12529891E-01  0.54891189E-02
 -0.13252491E-01 -0.71724298E-02 -0.13666050E-01
 -0.28054206E-01  0.57017869E-02  0.91289948E-02
 -0.70562105E-02 -0.37697625E-02 -0.44979322E-02
 -0.16816729E-01  0.61053019E-02  0.17590388E-01
 -0.67437253E-02 -0.53496133E-02 -0.16124097E-03
 -0.21341232E-01 -0.93006719E-02 -0.96505673E-02
  0.61383367E-02 -0.93469806E-02 -0.10064057E-02
 -0.29148212E-02 -0.35411807E-02  0.13842700E-01
  0.86240264E-02 -0.14742135E-01 -0.17063957E-01
  0.45139508E-02  0.10666186E-01  0.16131574E-01
 -0.74535818E-02 -0.29220280E-03 -0.56443941E-02
  0.30630322E-02 -0.12746788E-01 -0.89414975E-02
 -0.98729118E-02 -0.28069399E-02  0.22006658E-01
 -0.79526668E-02 -0.11129743E-01  0.18167990E-01
  0.98505890E-02  0.39710344E-02  0.32050735E-02
 -0.95733436E-02 -0.10931468E-02 -0.14284181E-01
  0.15612705E-01 -0.93661550E-02  0.23969225E-04
  0.42020605E-02  0.12234733E-01  0.21166517E-01
  0.11184000E-01  0.16331859E-01  0.55192805E-02
 -0.19655102E-01 -0.11715289E-01  0.46918244E-02
  0.12217387E-01 -0.26388614E-02  0.11966236E-02
 -0.15950704E-01 -0.19360472E-03  0.17822294E-01
  0.18306813E-02  0.44709547E-02 -0.34029686E-02
 -0.62990638E-02  0.10272054E-01 -0.41492829E-02
  0.15563626E-01 -0.10566311E-02  0.40616123E-02
 -0.17834396E-01 -0.47458771E-02  0.12496953E-01
 -0.24757575E-01 -0.11195325E-01 -0.20977156E-02
 -0.12001062E-01  0.97322157E-02  0.63227944E-02
 -0.73783503E-02 -0.55584147E-02 -0.32996862E-01
 -0.20600999E-01  0.63847073E-02  0.97785752E-02
 -0.90421356E-02  0.24422038E-01 -0.16253220E-01
 -0.83603005E-02 -0.10709501E-03  0.21644188E-02
 -0.60036313E-02  0.36222434E-02 -0.12613136E-01
 -0.65930562E-02  0.15506586E-02 -0.12303887E-02
 -0.54404774E-03  0.25565823E-01  0.23348393E-01
  0.91971313E-02  0.95206130E-02  0.67314430E-02
 -0.36466675E-02 -0.94946171E-02 -0.31019569E-02
 -0.61626581E-02  0.28505330E-02  0.16449936E-01
  0.21023746E-02  0.11578640E-01  0.37331783E-02
  0.33570170E-02  0.43124145E-02  0.47149736E-02
  0.11749726E-01  0.11400637E-01  0.82621610E-03
  0.52402117E-03  0.46594960E-02  0.56636201E-02
  0.12725468E-01  0.82802751E-02 -0.19693966E-01
 -0.28778191E-02 -0.57326123E-02 -0.56700168E-02
  0.89496318E-02  0.27640064E-01 -0.84801824E-02
  0.82599301E-02  0.36067753E-02 -0.84413151E-02
  0.16254548E-01  0.14880883E-01 -0.29020665E-01
  0.14357405E-01  0.32185353E-02  0.60344741E-02
 -0.19911279E-02 -0.14857527E-02  0.13825656E-01
 -0.73493301E-02 -0.16845784E-01  0.69953427E-02
  0.74791376E-02 -0.23917986E-02  0.40566962E-02
 -0.13266710E-01  0.66239287E-02 -0.30943981E-02
  0.10778458E-01 -0.19384553E-01  0.17356871E-01
  0.83113927E-02  0.12173659E-01 -0.85729852E-04
 -0.58767965E-02  0.11918280E-01 -0.19464086E-01
  0.17133008E-01  0.45460314E-02 -0.22857090E-01
  0.81792523E-02 -0.10718283E-01  0.13073489E-01
 -0.60422728E-02  0.54689282E-02 -0.23564567E-02
  0.20657547E-03 -0.90075130E-02  0.91589798E-04
 -0.20458539E-01  0.65515198E-02 -0.14670742E-01
  0.17951001E-01  0.15809482E-03 -0.11783719E-01
 -0.78139206E-02 -0.47864452E-02 -0.14282395E-01
 -0.73355014E-02 -0.13199321E-01  0.16557475E-02
 -0.22089371E-01 -0.29036719E-02 -0.50077981E-02
 -0.74242437E-02  0.35749054E-02  0.48314294E-02
  0.22302626E-01 -0.28535636E-01 -0.40650203E-03
 -0.10460336E-01  0.95794814E-02 -0.60835439E-03
  0.13486439E-01  0.16911763E-01 -0.37395704E-02
 -0.13336302E-01 -0.16166360E-01  0.57519451E-02
  0.41273585E-02  0.13133993E-02 -0.60113515E-02
 -0.14438904E-01 -0.16553740E-01 -0.12080451E-02
  0.38040432E-02 -0.62485431E-02  0.24910381E-01
 -0.12084784E-01 -0.19433458E-01  0.33551776E-02
  0.17957051E-01 -0.90912720E-02 -0.87127356E-02
  0.14024853E-01  0.63417853E-02 -0.37032190E-02
 -0.15506612E-01  0.37842228E-02  0.16383320E-01
  0.43594590E-02  0.14397806E-02  0.11859329E-02
 -0.16358657E-01 -0.10519151E-01  0.59220611E-02
  0.40094364E-02  0.25909466E-02 -0.89839314E-02
  0.20059154E-01 -0.49239432E-02 -0.25623289E-02
  0.21372727E-01  0.13023017E-01 -0.11301320E-01
 -0.75978978E-02  0.10331445E-01  0.46079586E-02
 
           1
  0.500000000000000     
  0.93768206E+00 -0.27679460E-02 -0.67485570E-17  0.00000000E+00
  0.68451070E-01  0.15613051E+00  0.98347521E+00
  0.26051340E+00  0.33713495E-01  0.10360645E+00
  0.19104296E+00  0.27206869E+00  0.23166274E+00
  0.27639982E+00  0.20286475E+00  0.64814294E-02
  0.19932207E-01  0.23096939E+00  0.13749126E+00
  0.19388397E+00  0.96701031E-01  0.23006147E+00
  0.55354118E-01  0.98899762E-01  0.34901202E+00
  0.31380672E+00  0.90192256E-01  0.45058033E+00
  0.19634765E+00  0.26718588E+00  0.57034180E+00
  0.29158613E+00  0.22044786E+00  0.32291612E+00
  0.60495961E-01  0.25557344E+00  0.45278050E+00
  0.15556725E+00  0.73895849E-01  0.54597812E+00
  0.92616325E-01  0.94747691E-01  0.69551502E+00
  0.26398350E+00  0.94452534E-01  0.77351290E+00
  0.24780071E+00  0.28631356E+00  0.88670953E+00
  0.31705629E+00  0.26952697E+00  0.67966526E+00
  0.58706110E-01  0.19465414E+00  0.81378675E+00
  0.15955515E+00  0.63876681E-01  0.89537587E+00
  0.30621015E-01  0.48467137E+00  0.97441280E+00
  0.25363516E+00  0.34129023E+00  0.98288984E-01
  0.22005400E+00  0.63868269E+00  0.23241549E+00
  0.21232825E+00  0.45031908E+00  0.43569939E-02
  0.13187953E+00  0.59634902E+00  0.10769625E+00
  0.13406759E+00  0.41646064E+00  0.18820261E+00
  0.86056953E-01  0.46219042E+00  0.32372814E+00
  0.27835700E+00  0.38474520E+00  0.45999119E+00
  0.23572941E+00  0.59420793E+00  0.58026414E+00
  0.26186384E+00  0.49617073E+00  0.29164019E+00
  0.11472957E+00  0.60536738E+00  0.43664975E+00
  0.11984562E+00  0.37408393E+00  0.59113116E+00
  0.40190708E-01  0.43668484E+00  0.69016200E+00
  0.21655457E+00  0.35340464E+00  0.74721975E+00
  0.20327209E+00  0.57146523E+00  0.89189142E+00
  0.25136501E+00  0.52357701E+00  0.72063743E+00
  0.13707023E+00  0.58985091E+00  0.75941015E+00
  0.86489328E-01  0.36268921E+00  0.87346686E+00
  0.61955303E-01  0.82467637E+00  0.98734711E+00
  0.26004828E+00  0.79581832E+00  0.13517553E+00
  0.18421478E+00  0.91837103E+00  0.21119127E+00
  0.24877150E+00  0.85119318E+00  0.99589145E+00
  0.82247520E-01  0.95548699E+00  0.86849008E-01
  0.89978738E-01  0.72106111E+00  0.22921391E+00
  0.59722576E-01  0.80500572E+00  0.33790814E+00
  0.32447610E+00  0.78632355E+00  0.49367530E+00
  0.24799746E+00  0.94179469E+00  0.56229501E+00
  0.25008989E+00  0.84655164E+00  0.34974321E+00
  0.11888015E+00  0.93989616E+00  0.44068685E+00
  0.14015408E+00  0.72868567E+00  0.54256631E+00
  0.77662360E-01  0.83309794E+00  0.64459430E+00
  0.31672329E+00  0.76616541E+00  0.83104998E+00
  0.19205771E+00  0.91727937E+00  0.89347401E+00
  0.24080594E+00  0.75369925E+00  0.66015711E+00
  0.45395686E-01  0.90276491E+00  0.81111055E+00
  0.96904351E-01  0.71722808E+00  0.85520851E+00
  0.42190266E+00  0.18753082E+00  0.97842768E+00
  0.64311275E+00  0.11742260E+00  0.14829095E+00
  0.56973836E+00  0.25262581E+00  0.24554623E+00
  0.59057437E+00  0.19115739E+00  0.98085424E+00