(Si O2)81  (P1) ~ 3x3x3Supersel (VASP)  
   1.00000000000000     
    14.9916000000000000    0.0000000000000000    0.0000000000000000
    -7.4957993700000003   12.9831068100000007    0.0000000000000000
     0.0000006000000000    0.0000010400000000   16.3712997000000016
   O    Si
   162    81
Direct
  0.1598740974480706  0.2112274065162687  0.0171677466361063
  0.2296698784765380  0.0153771333463174  0.0964545141985376
  0.2242943545475130  0.2535396005446993  0.1686355337736211
  0.2986442830418825  0.1452106160686994  0.9457547364015956
  0.0728578631887450  0.2736311335862054  0.1297371614077272
  0.1039584115868554  0.0509016442202268  0.1875808413265201
  0.0902528039570590  0.1343188173403110  0.3541320857323529
  0.2385567987928543  0.1189646313254484  0.4505024529915029
  0.1518260970874734  0.2260870401625658  0.5506315097833309
  0.2776981309065076  0.1977951237469929  0.3127575036092689
  0.0469812792209708  0.2713877691913609  0.4420097787531154
  0.0905548594407172  0.0274615695716060  0.5631807713213537
  0.0936887394666440  0.1394639894181838  0.7050736307980221
  0.2117201124813912  0.0762112230881927  0.7428061573240485
  0.2744366383045031  0.3130307092948501  0.8744186521290989
  0.2558980088380806  0.2202555343675836  0.6593135167670403
  0.0905640068814036  0.2927407863082812  0.8014636909343018
  0.1186208414816222  0.0660107966998122  0.9034498611723740
  0.0572526358268205  0.4460465769110932  0.9915784822553253
  0.2267329497812160  0.4364615856651685  0.1149472215803949
  0.2638763440317168  0.6161028475408815  0.2202249796628323
  0.2901367091496501  0.6083381419874744  0.0004741243109453
  0.0748181934216878  0.5850750281017443  0.1457428009955822
  0.1477150398815839  0.3903143239361377  0.2589815368942516
  0.1274798247917893  0.5611681539371239  0.2911942021804021
  0.2589856389682858  0.3840053709205973  0.4480889113024401
  0.1451046115182533  0.5998653091804456  0.5695712249285804
  0.2673410252621592  0.5251107014082880  0.3647722671262751
  0.0615313772160242  0.6208635482115659  0.4290824516768063
  0.1326884207442177  0.4038011386010826  0.5486431103786161
  0.0361374356192392  0.4062686570716205  0.6696964498750504
  0.2468457133026682  0.4531196001567652  0.7960071745556984
  0.1512569567076654  0.5365284578345223  0.8772087315586242
  0.2450890035733243  0.5340626488865210  0.6570936032604611
  0.0648095356725851  0.5812672645667887  0.7605173309503075
  0.1581077222593537  0.3781488728303529  0.9321193151024696
  0.0549169490956996  0.7916177189730552  0.0283756920278381
  0.2362513966038172  0.7037729364677123  0.1167791449622494
  0.1190108296783587  0.8803655956191259  0.2495703432049858
  0.2582812533076503  0.8460243612491913  0.0192775365814137
  0.0072225816960175  0.8823029418885421  0.1236819978039397
  0.1707498847029588  0.7391447378510942  0.2338456247204507
  0.0084988437439434  0.7487454723177582  0.3522388156538865
  0.2590723683606468  0.6999589063602769  0.4171922218330126
  0.2283622815240813  0.9448563804482545  0.5693259577997771
  0.2439633451565860  0.8633386564010865  0.3587770291134807
  0.0999309051636894  0.9327450769189027  0.4237251383508628
  0.1748746814235791  0.7774870998465507  0.5336952821432777
  0.0914004671412664  0.8430742210330056  0.6647603988728401
  0.2405099564454885  0.7210643275606456  0.7982829759346542
  0.1882861411158216  0.9255831568970414  0.9035971505955736
  0.2336195111928807  0.8420775262201067  0.7013020698196314
  0.0766950835453305  0.9387213973341980  0.7609385463545455
  0.1029616041849465  0.7080894805204119  0.9024970807071807
  0.4427753328239034  0.1022244782523298  0.0136604888641901
  0.5775045805671057  0.0810748014720144  0.0912286705305646
  0.5384848677529448  0.3093436167744609  0.2284299559579002
  0.6994447927584329  0.2320269607616407  0.9622272045485487
  0.3746693436061174  0.2242376046893184  0.1136039936512001
  0.4977351839627876  0.1125539256617499  0.2094742851007764
  0.4270468669005941  0.1756429441761288  0.3409546479224213
  0.5824898346561774  0.0633434231706092  0.4378012992942518
  0.5322146913477444  0.2828223966223166  0.5496804102349184
  0.6304586239724626  0.1927238043141438  0.3188270488728239
  0.3875326967017522  0.2553245515279570  0.4627506874908950
  0.5007830357036991  0.0999085446631365  0.5711152293264884
  0.3680887389585777  0.1055570322771464  0.6447818642170364
  0.6074638077581290  0.0599130608110505  0.7580538808140956
  0.5222123015770888  0.2707027060503037  0.9058295055377614
  0.5672020812195174  0.2126806198202357  0.7026147680657318
  0.3991528924097126  0.2286899850266740  0.7666570147329380
  0.4660757000165119  0.0767065043735280  0.8602268252547629
  0.3817477890698758  0.4697252145816410  0.0023801740188156
  0.5639071163113790  0.3630556878012188  0.0619164695108282
  0.5466152802974079  0.6278752609084154  0.2481497436952335
  0.5442947645482117  0.4860817244165863  0.9854943543883676
  0.4220400652961504  0.5977671715899189  0.1180374071681130
  0.4776831757175040  0.4194828605928136  0.1688607419903126
  0.3946378859043108  0.4643196162821918  0.3022891228672444
  0.5933870660571965  0.4370930459133324  0.4311800527530976
  0.5692265782642596  0.5820200937282651  0.5547518229287292
  0.6298932980284335  0.5341952203434654  0.2905147069770022
  0.4149027641457193  0.5683965782058983  0.4699917399336490
  0.4989025510441613  0.4027389479209771  0.5797319519699674
  0.3848507137955050  0.4680658620789805  0.6670262770253739
  0.5838708542254342  0.4037629082146573  0.7370483426461711
  0.4737550982540440  0.5734192837750497  0.8754423875794294
  0.6150384386306231  0.5746674229332133  0.6880938908685301
  0.4081701939329901  0.6342268605934127  0.7456594044270034
  0.4460041574345176  0.3881219453853344  0.8576135665828618
  0.3816308801553159  0.7889721679514701  0.9991109951131606
  0.6188908133695834  0.7446500933266829  0.1185043197576382
  0.5426638393357354  0.9471285288952628  0.2045722369865277
  0.5652779767541700  0.8289922233158988  0.0212477519577601
  0.3681714488462594  0.9010722072218903  0.1454015481320204
  0.4767422497348117  0.7459991868852528  0.2147987397943357
  0.4308568075173422  0.8650150521976994  0.3382963030844629
  0.5629708301301888  0.7235631613093879  0.4317631655808760
  0.5530137338865829  0.9430886242806816  0.5643828488800497
  0.6305784359255319  0.8930574041944650  0.3290258464781325
  0.3938683411583438  0.9509765431352404  0.4569066139265742
  0.5156463236570323  0.7484312838466666  0.5729272420699055
  0.3577212089598732  0.7657067111835907  0.6521111120206341
  0.6038065239668527  0.7332040167410567  0.7826192406047273
  0.5371197851921167  0.9569245686131101  0.9129290780501657
  0.5538880844656827  0.8615662130107827  0.6963145130442678
  0.4162815082140482  0.9110860586614136  0.7751585219005552
  0.4615267057970813  0.7813512685502648  0.8557614090892152
  0.7859993676113111  0.1386724976913535  0.0508197437545762
  0.9863918965364155  0.0933195475017225  0.0972368742894082
  0.7984723295301389  0.2150203291839223  0.1857191968070879
  0.9902361179298366  0.2154205446153847  0.9806524156074663
  0.7078592820017297  0.2997181491469887  0.1120154376447058
  0.8132557763575966  0.0551896844759826  0.1736624858564265
  0.7670389284493140  0.1313543802680236  0.3283496089739245
  0.8976274310428095  0.0824712313182946  0.4456404635780525
  0.8978255583607182  0.2710093404435773  0.5087445873138512
  0.9484531802513400  0.1822252414306692  0.2936874570359682
  0.7351200235094949  0.2749308939011382  0.4258051805655408
  0.8027593258786345  0.0894280174636202  0.6199271163552097
  0.7562899396394596  0.2059411663625937  0.6534933744403388
  0.9053915226289544  0.0906101164934917  0.7786853406921229
  0.8168435338664591  0.1995805732378372  0.8794157737496305
  0.9941903633694065  0.2379498878942308  0.6591087647138977
  0.7180545343308166  0.2730274760244175  0.8132856972554791
  0.8789753946509690  0.0678656571866464  0.9250027351475326
  0.7613113113854127  0.4921837444925751  0.0145303971775799
  0.8996576390604776  0.4275367811957106  0.1217274888016484
  0.8205392188663974  0.5833697015515735  0.2293218871389670
  0.9814545261187265  0.5741247179727409  0.0009186877715847
  0.7105426696588277  0.5936870563364364  0.0969010143297263
  0.7879046285766392  0.3798300464953136  0.2664639956199420
  0.7564556597305773  0.4774023188232670  0.3628391331972043
  0.9708977141898486  0.4238743509793839  0.4158663084775146
  0.8534788479365657  0.6005009173338809  0.5447245266566191
  0.9403221697096322  0.5495738994249694  0.2923287916799682
  0.7284716464563854  0.6340684794222660  0.4365912132560380
  0.8201772681766436  0.3827020157918168  0.5440976294600907
  0.7057340777054077  0.4319019116922351  0.6332057852404817
  0.9220299223810173  0.3896347683063609  0.8028215465422820
  0.8517861091113330  0.5558008984662368  0.8861832305369202
  0.8892228781786876  0.4899250245807573  0.6658937838116364
  0.7865796626410558  0.5694025301455744  0.7512291614059462
  0.8467035998313361  0.3993919034563345  0.9354567755697752
  0.7322703755415804  0.8007990272289612  0.9637308137161964
  0.9004609222378692  0.6875436511204743  0.0885463081420126
  0.8925453589589182  0.9494459665546535  0.2226517667300322
  0.9360504370853859  0.8749726275775800  0.9620491700989653
  0.7804119541640857  0.9357183540459995  0.0608938499251257
  0.7948981605166833  0.7498569715342668  0.1902719928300038
  0.7252069624556056  0.7808362789467073  0.3399249948057690
  0.9400404653201084  0.8059807699125786  0.5100130362446543
  0.8866073542221503  0.9626136549488838  0.5725833080107020
  0.8973213350138881  0.8343621961904061  0.3398287498308926
  0.7322939305363402  0.9341678436645857  0.4857903646096281
  0.7470862261980742  0.7032553186337215  0.5827755226466802
  0.7215676064143878  0.8324211649517312  0.6543251259343950
  0.9673774444793303  0.7230592205561598  0.7751690208718670
  0.8382385070518380  0.8849577617891413  0.8264181366031530
  0.8963459892910449  0.7944411447305805  0.6589767151789619
  0.7211676670041089  0.9761503807014354  0.8184501011582307
  0.7918670952028063  0.6883279532923080  0.8799272995853098
  0.1279747533714994  0.9614781031216251  0.1644994435300702
  0.1688393671765577  0.1562068473690828  0.2689430730019753
  0.0585610262304587  0.2017921957155391  0.0560107950472575
  0.1844041918351289  0.0099618274716224  0.5066383949096789
  0.1450293499543066  0.1384998516532190  0.6163987426940022
  0.9838020144417826  0.1505078541236710  0.3756935985388550
  0.1446271643026661  0.0032697891369594  0.8375836417470044
  0.2222426061425252  0.1891629446313035  0.9246362304409598
  0.0336865350964898  0.1951600844261161  0.7526899146195173
  0.1812383505908844  0.3371672599975826  0.1833368762027283
  0.2192979618041390  0.5256016264749959  0.2851664067231855
  0.0183697526779932  0.5072095830487344  0.0514246134209187
  0.1515358710748214  0.3127562780807996  0.4984518784473766
  0.1277563046216932  0.4712680694340015  0.6175757980023905
  0.0240557492060383  0.5353347304863684  0.3560710566960618
  0.2126719279413416  0.3665476697740422  0.8593764583238422
  0.1813736261043757  0.5156558371713308  0.9629010100168427
  0.9657826094645149  0.4705904559083879  0.7379869898984535
  0.1793841403003547  0.6424233582085520  0.1922391558834583
  0.1342544404695832  0.8058536231851648  0.2877440011728200
  0.9614223837533704  0.8236931988780042  0.0450308546632517
  0.1445508912020792  0.6697333871406301  0.4900912095257605
  0.1687524448985336  0.8333890265123707  0.6126343654237266
  0.9937463465328249  0.8241543790049993  0.4170597476761383
  0.1309606308497086  0.6457635367715968  0.8450842083797506
  0.1504626145790616  0.8254767582465143  0.9645778110842580
  0.9946112458321833  0.8265622129831233  0.7244959881372267
  0.4900492257124717  0.0147887058180758  0.1562417697728815
  0.5299671298868641  0.1953300254256914  0.2722879936092956
  0.3439027161254928  0.1316372732798902  0.0439969165746602
  0.4898477232769807  0.0078800467368349  0.5184972024230706
  0.4975533108868798  0.1990284592782790  0.6229454393060929
  0.3241610520415668  0.1583766369582282  0.3887964131245866
  0.5221816756916925  0.0108648274906356  0.8193041106293465
  0.5272357204811217  0.1722369800202528  0.9466593036190352
  0.3074516705892914  0.1591862209310516  0.6973530902453885
  0.4859371889351497  0.3143618406003821  0.1453174298428112
  0.5282046120434015  0.5029383673488791  0.2529939215440427
  0.3238728382264555  0.5175193353371190  0.0499575154182298
  0.4904574557555200  0.3250025948271101  0.4948559480225975
  0.5154011558737197  0.4997928521723113  0.6368947608216575
  0.3561212290712489  0.4945491349475728  0.4011484510932016
  0.4823753986805817  0.3148000029468889  0.8216997990402510
  0.4705592733661142  0.4886203251155670  0.9270988770375574
  0.3269031923310983  0.5213001252792702  0.7143954207419528
  0.5051920116595516  0.6740750074026028  0.1792308172359090
  0.5295932190753636  0.8677430867474500  0.2778539215808420
  0.3045481219662302  0.8005501130702749  0.0719300259725454
  0.5145503182748611  0.6615936581409672  0.5173370621064985
  0.4822693984556666  0.8206351920159415  0.6142085151699508
  0.3332548246154153  0.8524848638021546  0.4015663138437414
  0.4791892620533481  0.6751841454477847  0.8157136046471856
  0.4909709627203275  0.8335327371724652  0.9515809914719251
  0.3272139017919296  0.8223647028283927  0.7371927658345868
  0.8819549008941239  0.0089676976045674  0.1360029711939762
  0.8339661938070628  0.1521452188885076  0.2531359425908600
  0.6935296655771436  0.1871326980569132  0.0644659535536626
  0.8330314692508977  0.0206895588873978  0.5357955279354621
  0.8770226034871242  0.2250729554758493  0.6184237651280849
  0.6703686704668563  0.1539442401034410  0.3853990894050864
  0.8300181356545748  0.9894579035245709  0.8341979458930561
  0.8614377898808951  0.1564427349291418  0.9630169773942840
  0.6793307256846008  0.1945863236120718  0.7351764675324421
  0.7941526738860347  0.3135672914857550  0.1679669258404811
  0.8129829573840396  0.4905935088835887  0.2820814371896547
  0.6461774220396774  0.4882486510311184  0.0484867188654755
  0.8387289401010377  0.3298691847511344  0.4649385509241428
  0.8089089552850844  0.4652378187320756  0.5851594902378088
  0.6685591061164309  0.5271091875581684  0.3820205452375117
  0.8222271148620512  0.3100881904172796  0.8676851598090008
  0.8615130978777243  0.5215862934981391  0.9705974530007609
  0.6860244301902239  0.4898250725379116  0.7074664907391286
  0.8098332661373825  0.6462976190027673  0.1593336853980361
  0.8138429836839186  0.8331989943246705  0.2715613689250453
  0.6696810488014946  0.8294244898468659  0.0509675876004491
  0.8067826004744604  0.6750214306833795  0.5218613291757813
  0.8111158857930988  0.8236039376069765  0.6167704227025965
  0.6766988413798896  0.8367838175845799  0.4144034647214108
  0.8567400647892169  0.6455409655800189  0.8257824122730183
  0.8297978590498424  0.8190693846406988  0.9090757629199789
  0.6615142607039441  0.8518728681726646  0.7321966011416285
 
 -0.27497020E-01  0.47921662E-02  0.94131253E-02
  0.20912028E-02 -0.17245323E-01  0.29889745E-02
  0.19531589E-01 -0.38210497E-02 -0.15142461E-01
 -0.12396707E-01 -0.23915737E-02  0.11948302E-01
 -0.70942598E-02  0.68911157E-02  0.14546379E-02
 -0.15434823E-01 -0.12388142E-01  0.14020907E-01
 -0.93484817E-02  0.16740451E-01  0.37837153E-01
 -0.10800547E-01  0.17039996E-01 -0.25511206E-01
  0.13774903E-01  0.45181380E-01  0.25533020E-01
  0.90159552E-02  0.19784052E-01  0.16459680E-01
  0.56580717E-02 -0.22122035E-01  0.12098520E-01
  0.48945205E-02 -0.36615419E-02 -0.76091924E-02
  0.46237650E-02 -0.25098614E-01 -0.36059581E-02
  0.90281361E-02  0.10014872E-01 -0.84413680E-02
  0.35330087E-02  0.29020630E-01 -0.23600658E-01
 -0.16661298E-01  0.41115433E-02 -0.64478037E-02
  0.32494026E-01  0.13929285E-01  0.47001322E-02
 -0.15490741E-01 -0.81555000E-02 -0.13148251E-01
 -0.13990402E-01 -0.98298513E-02 -0.15171693E-01
  0.72831307E-02  0.24089007E-01  0.71383447E-02
  0.33361842E-01  0.21637661E-01 -0.11632729E-01
  0.14341176E-02  0.86915097E-03 -0.37933497E-03
 -0.11926697E-01 -0.95805454E-02 -0.33205222E-03
 -0.11514108E-01  0.12620374E-01  0.39834050E-02
 -0.12195015E-01 -0.29967223E-01  0.21009667E-01
 -0.27448162E-01  0.91284102E-02 -0.27304024E-01
  0.92241450E-02 -0.55682578E-02 -0.30001947E-04
 -0.22476396E-01  0.25836825E-02 -0.14167226E-01
 -0.32344193E-01  0.18320400E-01 -0.30941941E-02
  0.82445704E-02 -0.28038668E-01  0.15662502E-01
 -0.24142667E-01  0.17182838E-01 -0.56250660E-02
 -0.15425556E-01 -0.42822345E-01 -0.27744291E-01
  0.63147023E-02  0.91681254E-03 -0.35487520E-02
  0.58697094E-02 -0.29574028E-01 -0.33205655E-01
  0.23260499E-01  0.76808659E-02  0.28903130E-01
 -0.79989189E-02 -0.50098707E-02  0.26137645E-01
 -0.17016771E-01 -0.32350176E-02 -0.14203414E-01
 -0.20633275E-02 -0.13968021E-01 -0.99878460E-02
 -0.21934144E-01  0.51247755E-03 -0.61390385E-02
 -0.16750375E-02 -0.21727766E-01 -0.25104437E-01
 -0.25350928E-02  0.95376062E-02 -0.21899026E-01
 -0.18390501E-01  0.14326190E-01 -0.26911382E-01
 -0.70763634E-02 -0.12986018E-01 -0.36108557E-02
 -0.15622969E-01 -0.24125828E-02  0.42104336E-02
  0.15306342E-01 -0.73259364E-02 -0.46650337E-02
  0.14281949E-01 -0.35490561E-01  0.12505512E-01
 -0.19562904E-01 -0.68084385E-02 -0.32432994E-02
  0.60588114E-02  0.51050142E-02  0.14092269E-01
  0.22835136E-02 -0.19109993E-01  0.32897311E-01
  0.10015735E-01  0.24526804E-02  0.56426731E-02
  0.53148044E-02 -0.16933653E-01  0.18629423E-01
 -0.13083596E-01  0.62395322E-02  0.74534282E-02
  0.39601704E-03  0.51110582E-02  0.17730325E-01
  0.22341621E-03  0.41916885E-02 -0.41158432E-02
  0.29506034E-01 -0.14851702E-01  0.11039474E-01
  0.23904771E-02 -0.30793544E-01 -0.23256844E-02
 -0.15452970E-02  0.44226825E-02  0.51535821E-02
 -0.15750439E-01  0.20578439E-01 -0.54352101E-02
  0.20989610E-01 -0.40455834E-02 -0.13434346E-02
  0.12292944E-01  0.17698163E-01 -0.13427043E-01
  0.48735227E-03  0.26767669E-01 -0.15478063E-02
 -0.50762012E-02 -0.15882754E-01  0.96931196E-02
 -0.93049711E-02 -0.22463953E-01  0.69155847E-02
  0.42508444E-02 -0.63788081E-02 -0.21197349E-01
  0.55772949E-02  0.77154128E-02 -0.28061652E-01
  0.11043603E-03  0.47419108E-02 -0.30148600E-01
 -0.44436057E-02 -0.10384999E-03  0.44738514E-02
  0.16105188E-01 -0.18038183E-01 -0.19660730E-02
 -0.85303171E-02 -0.11307169E-01  0.19250012E-01
  0.11117151E-01  0.69877232E-02  0.19238050E-01
  0.25168992E-02  0.27085795E-01 -0.38611060E-02
  0.21770805E-01 -0.14773224E-01  0.26215500E-02
  0.20625630E-01  0.18874924E-01  0.11372067E-01
  0.32043275E-02  0.15151930E-01  0.19734622E-01
 -0.30102098E-01  0.70564066E-02  0.12674945E-01
  0.10643859E-01  0.26553365E-01  0.14815813E-01
  0.13427652E-02 -0.10394659E-01  0.41502822E-02
  0.37898215E-02  0.11667377E-01 -0.16105815E-01
 -0.24055932E-02  0.64932173E-02 -0.25335269E-01
 -0.13026206E-03 -0.15283443E-01  0.33154102E-03
 -0.13190377E-01  0.16089237E-01 -0.15711456E-01
 -0.20744755E-02  0.64869641E-02  0.53737238E-02
  0.11945700E-01 -0.40271766E-01  0.17319806E-01
  0.20208612E-01  0.18446835E-01 -0.22253551E-02
 -0.25015299E-01  0.42374935E-02  0.48619735E-02
 -0.75954028E-02  0.18090951E-01 -0.12132533E-01
 -0.30455234E-02 -0.25312173E-01 -0.25768996E-01
 -0.17572022E-01  0.10577836E-01  0.55345195E-02
 -0.18519545E-01  0.11172754E-01  0.14984882E-01
 -0.20472237E-01 -0.67683356E-02 -0.14705199E-01
 -0.13996114E-01 -0.19196849E-01 -0.19037606E-02
 -0.76072732E-02 -0.22947435E-01 -0.29428802E-02
 -0.11403068E-01 -0.25476544E-01 -0.17015027E-01
  0.37104269E-01  0.17059519E-01  0.43684761E-02
  0.67241478E-02  0.17586559E-01 -0.13286605E-01
  0.13312733E-01  0.10417243E-01 -0.29444588E-01
  0.24958932E-02  0.16113598E-01  0.62600864E-02
  0.20607296E-01 -0.13812525E-01  0.22204126E-03
 -0.96185374E-02 -0.38181740E-02  0.15029923E-01
 -0.67639241E-02 -0.94706806E-02 -0.16380752E-01
 -0.69279941E-02 -0.65588741E-02 -0.18344739E-01
 -0.24901699E-01  0.24578849E-01  0.35343729E-02
  0.11738832E-01  0.10725697E-01 -0.21483266E-01
 -0.84318032E-02 -0.13204303E-01 -0.24040364E-04
  0.32250775E-02 -0.14690377E-02 -0.93976526E-03
  0.38360230E-02  0.15909665E-01 -0.93519035E-02
  0.12045940E-01  0.17421814E-01 -0.57106225E-02
  0.32288868E-02  0.17361199E-01  0.10256108E-01
 -0.17653652E-01 -0.64595625E-02 -0.16997936E-01
 -0.10187034E-01 -0.74087179E-03 -0.17735883E-01
 -0.18006435E-01  0.27437536E-01 -0.15801681E-02
 -0.10914727E-01  0.57150852E-02  0.10445896E-01
  0.58708982E-02 -0.11964734E-03  0.15394764E-01
  0.90473869E-02  0.81197403E-02  0.67742541E-02
  0.62244530E-02  0.32094987E-01  0.32118952E-02
 -0.17198962E-01  0.12955267E-01  0.12144587E-01
  0.20863992E-01 -0.50526890E-02  0.39678110E-02
 -0.20108073E-01 -0.21628319E-01  0.56524957E-02
  0.22907714E-02  0.36952977E-02  0.44952473E-02
 -0.12134333E-01 -0.14741343E-01  0.22925890E-01
  0.96870308E-02  0.76055020E-02  0.51656273E-02
 -0.92027252E-02  0.30251435E-02  0.13897513E-02
 -0.44974321E-02  0.12646275E-01 -0.29477015E-01
  0.11865661E-01  0.35175207E-02  0.19719318E-01
  0.15665791E-01  0.53924835E-02 -0.16334486E-01
  0.54331613E-02 -0.14404030E-01 -0.53251404E-02
  0.47316837E-02  0.31812226E-03  0.19925464E-01
  0.21210058E-01 -0.50310226E-02  0.12550519E-01
  0.51634780E-02 -0.89236946E-02 -0.96063328E-03
  0.15054002E-01  0.17806568E-02 -0.16058524E-01
  0.19064395E-02 -0.68296442E-02 -0.85889736E-02
  0.26416839E-01 -0.25666456E-01  0.43251997E-03
 -0.21538762E-01 -0.60263685E-02 -0.15974836E-01
  0.29002752E-01 -0.21465153E-01  0.38067911E-01
 -0.31316171E-01  0.11383966E-01 -0.11788503E-01
 -0.14858485E-01 -0.69768728E-02  0.27820932E-01
  0.14400126E-01  0.15922598E-01 -0.40872464E-02
  0.21164304E-02 -0.17929645E-01  0.17045175E-01
 -0.37790307E-02 -0.15652830E-01  0.96201157E-02
 -0.12030455E-01 -0.17683449E-01 -0.22297593E-01
 -0.80278593E-02  0.98996558E-02  0.17120415E-01
  0.14122114E-01 -0.14231183E-01  0.84400122E-02
  0.16587547E-01  0.13986660E-01  0.19867540E-01
 -0.33004016E-03  0.13517391E-01 -0.85186070E-02
  0.46489261E-02 -0.10891803E-01  0.28699308E-01
 -0.24619573E-01  0.10432937E-02 -0.20969855E-01
  0.11038230E-01 -0.13275551E-01  0.75854817E-02
 -0.22785658E-02  0.22094651E-02  0.28398281E-02
 -0.33825217E-01 -0.52802444E-02 -0.15853378E-01
  0.10475640E-01  0.15675773E-01  0.24155300E-01
 -0.25127388E-02  0.34525230E-02  0.53930838E-02
 -0.21723475E-03  0.11368056E-01  0.36448966E-02
 -0.63471013E-02  0.11346880E-01 -0.35801476E-02
  0.30084247E-02  0.14589306E-01 -0.69524055E-02
  0.37195481E-02  0.29636932E-02  0.36817990E-01
 -0.10675852E-01 -0.43559905E-02 -0.12023450E-01
 -0.10664112E-01  0.32766434E-01  0.15182993E-01
  0.13758213E-01 -0.35498966E-02 -0.31629219E-01
  0.16822633E-01 -0.12184009E-01  0.40837721E-02
 -0.11436280E-01 -0.13956179E-02  0.79246185E-02
 -0.29429750E-02 -0.92302735E-02 -0.11506337E-01
 -0.40602836E-02  0.13616579E-01  0.10364243E-01
 -0.97250474E-02  0.23364536E-01  0.27352388E-01
  0.10186565E-01 -0.78677854E-02 -0.39280983E-02
 -0.19975269E-01 -0.15881093E-01  0.28185084E-02
 -0.76166374E-02 -0.29305692E-02  0.16813538E-01
  0.20235313E-02 -0.69879627E-02 -0.36582309E-02
 -0.39375383E-02 -0.23465035E-02  0.27846286E-02
 -0.27284812E-02  0.85617900E-02 -0.63129474E-02
  0.27679533E-02  0.18707841E-01  0.34227301E-02
 -0.10849402E-02  0.17538238E-01 -0.12729132E-01
  0.16467168E-01  0.87570169E-02  0.32750144E-02
 -0.89802513E-02  0.32203095E-02 -0.17212276E-01
  0.26299334E-02  0.25640037E-01 -0.10805516E-01
  0.67561444E-02  0.17017507E-02  0.46551565E-02
  0.12127158E-01 -0.51704904E-02 -0.71945080E-02
 -0.10220564E-01 -0.17564864E-01 -0.68619778E-02
 -0.34893907E-02 -0.48351602E-02 -0.85176455E-04
 -0.24543238E-02  0.83095535E-03  0.13808291E-01
  0.90801787E-02  0.10745394E-01  0.16004543E-02
 -0.50554186E-02 -0.12925923E-01  0.37507515E-02
  0.11282197E-01  0.10662549E-02 -0.30123281E-02
 -0.81652514E-02 -0.58359803E-02 -0.60467919E-03
  0.48264326E-02 -0.46794905E-02  0.12060976E-01
 -0.23061725E-02 -0.97567252E-02  0.12367645E-01
  0.12430015E-01  0.43223295E-02  0.28060711E-02
  0.59003570E-02 -0.26160439E-01  0.10756234E-02
 -0.73888097E-02  0.16889077E-02 -0.70481190E-02
  0.68581806E-02  0.24078801E-02  0.72278322E-02
  0.77967980E-02  0.30918769E-02  0.20882012E-01
  0.52590665E-02  0.16594702E-01  0.12498528E-01
  0.39419106E-02 -0.89712455E-04  0.12649582E-01
 -0.28973972E-02 -0.10381143E-01  0.35244881E-02
 -0.67741784E-02  0.53630207E-02 -0.51841435E-02
  0.48327415E-02  0.29621408E-01  0.12826681E-01
  0.12493586E-02  0.14356999E-01  0.53306818E-02
 -0.50673441E-02 -0.21137560E-02 -0.85945356E-02
 -0.27016933E-02  0.32196580E-02  0.56475679E-02
  0.83163998E-02 -0.58276718E-02  0.12147079E-01
  0.24699159E-03 -0.49338474E-02  0.88033241E-03
 -0.10913263E-01 -0.51454428E-02  0.12920003E-01
  0.55298865E-02  0.42031412E-03 -0.93827997E-02
  0.79685001E-02 -0.74140991E-03  0.17769491E-01
 -0.70409725E-02 -0.15265909E-01 -0.32647309E-02
 -0.27780420E-02 -0.46341112E-02  0.26604183E-03
  0.14293407E-01 -0.71361910E-03 -0.15071145E-01
  0.19866563E-02  0.51355492E-02  0.10731538E-02
  0.98828247E-02  0.17279432E-01 -0.16039865E-01
 -0.35740150E-02 -0.99681409E-02 -0.77112803E-02
 -0.65410178E-02  0.93702384E-03 -0.74511969E-02
  0.10318523E-01  0.49738772E-03  0.23062290E-01
  0.24361771E-02 -0.11185364E-01  0.13080500E-02
  0.17573363E-02 -0.17483157E-01  0.10613854E-02
  0.12234766E-01  0.21585876E-01  0.32275946E-02
 -0.15102389E-02  0.37832238E-03 -0.54981288E-02
  0.39188660E-02 -0.12439445E-01 -0.58899831E-03
 -0.33356050E-02 -0.27060765E-01 -0.71876045E-02
 -0.78260862E-02 -0.22444597E-02 -0.16109852E-02
  0.29477834E-02  0.10001374E-02  0.12928384E-01
  0.12435386E-02  0.10817321E-01 -0.74882848E-02
 -0.89000562E-02  0.21574583E-01  0.31819242E-02
  0.20468435E-01 -0.39277579E-02  0.55324810E-02
 -0.25150020E-01 -0.63153079E-02 -0.15571319E-01
  0.97731183E-02  0.15214039E-02 -0.73318375E-02
  0.79248392E-03 -0.50382590E-02  0.13755691E-01
 -0.12389598E-01  0.10004161E-01 -0.72118126E-02
  0.45462420E-02 -0.14544519E-01 -0.40681020E-02
  0.20003769E-01 -0.94431786E-02 -0.22938721E-01
 -0.13498826E-01 -0.24291818E-01  0.13085551E-02
 -0.13541153E-01  0.10664373E-01 -0.25050427E-02
  0.60020236E-02 -0.13739268E-01 -0.27256690E-01
  0.58298087E-02  0.26400375E-02 -0.99309081E-03
  0.19229317E-01  0.39801102E-02 -0.13748797E-01
  0.79925119E-03  0.17039549E-01 -0.80614261E-02
  0.17288093E-01 -0.90999106E-02  0.82247890E-02
  0.10147540E-01  0.40887358E-02  0.20866016E-02
 -0.21231923E-01  0.85028927E-02  0.12937722E-01
 -0.10388782E-01  0.69504957E-02 -0.18351612E-01
 -0.15664159E-01 -0.14517446E-01 -0.29559005E-01
 -0.40861109E-03  0.65874676E-02  0.79791889E-02
  0.12173523E-01 -0.80098973E-02 -0.48159064E-02
  0.50569909E-02 -0.41864347E-02  0.12007446E-01
  0.14031600E-01 -0.11476238E-01 -0.10763456E-01
 
           1
  0.500000000000000     
  0.95758203E+00  0.53166261E-03 -0.67485570E-17  0.00000000E+00
  0.15904929E+00  0.21141196E+00  0.17455235E-01
  0.22940755E+00  0.14712989E-01  0.96545801E-01
  0.22487220E+00  0.25339245E+00  0.16817306E+00
  0.29818478E+00  0.14511851E+00  0.94611965E+00
  0.72753949E-01  0.27389652E+00  0.12978159E+00
  0.10320509E+00  0.50424557E-01  0.18800906E+00
  0.90263364E-01  0.13496352E+00  0.35528768E+00
  0.23852470E+00  0.11962087E+00  0.44972331E+00
  0.15315552E+00  0.22782705E+00  0.55141132E+00
  0.27837979E+00  0.19855704E+00  0.31326020E+00
  0.46744010E-01  0.27053581E+00  0.44237928E+00
  0.90647596E-01  0.27320558E-01  0.56294838E+00
  0.93359658E-01  0.13849740E+00  0.70496350E+00
  0.21221406E+00  0.76596912E-01  0.74254835E+00
  0.27511329E+00  0.31414834E+00  0.87369786E+00
  0.25542149E+00  0.22041388E+00  0.65911659E+00
  0.91915967E-01  0.29327723E+00  0.80160724E+00
  0.11794715E+00  0.65696716E-01  0.90304830E+00
  0.56596746E-01  0.44566801E+00  0.99111512E+00
  0.22743971E+00  0.43738929E+00  0.11516524E+00
  0.26540568E+00  0.61693615E+00  0.21986970E+00
  0.29020128E+00  0.60837161E+00  0.46253895E-03
  0.74235933E-01  0.58470607E+00  0.14573266E+00
  0.14757404E+00  0.39080035E+00  0.25910320E+00
  0.12649605E+00  0.56001407E+00  0.29183586E+00
  0.25824596E+00  0.38435692E+00  0.44725501E+00
  0.14530503E+00  0.59965087E+00  0.56957031E+00
  0.26664114E+00  0.52521020E+00  0.36433958E+00
  0.60805407E-01  0.62156910E+00  0.42898795E+00
  0.13242349E+00  0.40272133E+00  0.54912146E+00
  0.35663098E-01  0.40693040E+00  0.66952465E+00
  0.24550666E+00  0.45147044E+00  0.79515983E+00
  0.15148522E+00  0.53656377E+00  0.87710035E+00
  0.24471530E+00  0.53292371E+00  0.65607946E+00
  0.65733221E-01  0.58156307E+00  0.76140007E+00
  0.15774447E+00  0.37795593E+00  0.93291759E+00
  0.54287113E-01  0.79149313E+00  0.27941902E-01
  0.23591362E+00  0.70323501E+00  0.11647410E+00
  0.11828915E+00  0.88038533E+00  0.24938285E+00
  0.25780700E+00  0.84518759E+00  0.18510816E-01
  0.73216855E-02  0.88267025E+00  0.12301317E+00
  0.17041239E+00  0.73969646E+00  0.23302372E+00
  0.80127768E-02  0.74824536E+00  0.35212854E+00
  0.25850485E+00  0.69986599E+00  0.41732081E+00
  0.22873171E+00  0.94457425E+00  0.56918348E+00
  0.24375628E+00  0.86197186E+00  0.35915896E+00
  0.99147341E-01  0.93248287E+00  0.42362608E+00
  0.17517506E+00  0.77768370E+00  0.53412568E+00
  0.91108649E-01  0.84233826E+00  0.66576512E+00
  0.24089123E+00  0.72115878E+00  0.79845531E+00
  0.18813733E+00  0.92493102E+00  0.90416612E+00
  0.23330329E+00  0.84231782E+00  0.70152971E+00
  0.76806709E-01  0.93891823E+00  0.76148005E+00
  0.10304977E+00  0.70825091E+00  0.90237138E+00
  0.44347344E+00  0.10165252E+00  0.13997648E-01
  0.57699135E+00  0.79888893E-01  0.91157641E-01
  0.53851849E+00  0.30951394E+00  0.22858735E+00
  0.69931574E+00  0.23281947E+00  0.96206121E+00