(Si O2)81  (P1) ~ 3x3x3Supersel (VASP)  
   1.00000000000000     
    14.9916000000000000    0.0000000000000000    0.0000000000000000
    -7.4957993700000003   12.9831068100000007    0.0000000000000000
     0.0000006000000000    0.0000010400000000   16.3712997000000016
   O    Si
   162    81
Direct
  0.0489902380922441  0.1022535572659377  0.9939215643433731
  0.2497758985500148  0.0098527482712940  0.0636977081943144
  0.2292641948104615  0.2804806676423841  0.2523689707419043
  0.2338410983252105  0.1735294835649311  0.0124044825654785
  0.1116891128894140  0.2975508664332381  0.0918773925526882
  0.2233405025656370  0.0978200042942813  0.2391865397512156
  0.0577720183076555  0.0942628759048962  0.3180521527418641
  0.2781178620327018  0.0577049440208510  0.4521538616247041
  0.2135423887720936  0.2806051381938975  0.5479403126607392
  0.2507206834086080  0.1680995119708807  0.3763534153462722
  0.0914602693608972  0.2459653802379584  0.4178695123273196
  0.1323739039637631  0.0677061773615874  0.5389922196555170
  0.0216978182438222  0.0823638927498432  0.6776922089027356
  0.2508469735005606  0.1027468748108426  0.7765490237855185
  0.2006114080070705  0.2627001236511126  0.8928870576662542
  0.2361402021929924  0.1986179310695091  0.6847083520640963
  0.0658264403624754  0.2810696523341896  0.7389936227452523
  0.1043219635303298  0.0385857778843012  0.8777993443316635
  0.9948112086323957  0.4620446925023501  0.9374197019654787
  0.2850755170490797  0.4393477176069206  0.1337141802362757
  0.1653888316643715  0.5566516910086956  0.1715101669674111
  0.2230000441002838  0.5151312173165840  0.0218414500422927
  0.0564001627316948  0.5907334331941230  0.0872188851565885
  0.1213814580785851  0.3720459564838179  0.2217978851555671
  0.0589915166842461  0.4743452650706713  0.3034566948523644
  0.2635366331879906  0.4286080130491278  0.3995087807777473
  0.1989254786930367  0.6038389727039631  0.5704066670004695
  0.2357059879936113  0.5392038969737651  0.3202206356906193
  0.1346551017291104  0.6197073226606833  0.4080697152918032
  0.1413246566956020  0.4006987199992413  0.5324347355318634
  0.0520443067443552  0.4679387727619845  0.6544865472642462
  0.2392360748808710  0.3757421175531700  0.7681773385103353
  0.1955732508634646  0.5928582221736880  0.8926495218265545
  0.2874438049793336  0.5040664320060347  0.6443662815843384
  0.0801220433256334  0.6096738116567461  0.7802253270244444
  0.1627607248790945  0.4287299638711706  0.8699213457700676
  0.0947859692064120  0.7984494370530911  0.0204243235560599
  0.2626868631388031  0.7387043690151109  0.1137288092538231
  0.1993141971368071  0.9031315895291112  0.2068444117369825
  0.2576677446285995  0.8127314167267562  0.9856006958926308
  0.0877451223911922  0.9364897413644704  0.1131075852005886
  0.1042867776395663  0.6834583003241350  0.2381645310186143
  0.0577990708372624  0.7722498127332725  0.3521029271519679
  0.2953937586073601  0.8079128451333838  0.4860743844809107
  0.1642989498378052  0.9051714327341288  0.5477519360507294
  0.2374367491487778  0.8576881237142066  0.3658514394704862
  0.0902644699048638  0.9631538854994228  0.4085230839211131
  0.1144450105155676  0.7193491595311915  0.5344901139266076
  0.0125380004821628  0.7296810431057472  0.6427075831609037
  0.2773493686259390  0.7533844676987255  0.7923154282294347
  0.2255841021317439  0.9446134744162936  0.8907510932374165
  0.2453745189246898  0.8606920965198519  0.6556235677677050
  0.1086819413450690  0.9128711465951591  0.7285521526942665
  0.1301761798212814  0.7634777654740131  0.8670978677756143
  0.4084532049220258  0.1504324405740787  0.9996853875614845
  0.6014639216083055  0.0496162436757696  0.0783966386738193
  0.5266563811610424  0.2584235481881418  0.2284707347391781
  0.5685504836928879  0.1754417994961229  0.0181256075079905
  0.3828586128135646  0.2469037275459060  0.1159156140720978
  0.4875934564991427  0.0668262270377388  0.2226807407722806
  0.3920913175950031  0.1245035368663727  0.3330044391026967
  0.6186915292077688  0.1064301067898371  0.5002445628354373
  0.5537574332321685  0.2455746476042259  0.5605004911304499
  0.5985782227157216  0.1997819330268787  0.3546256335908212
  0.4276763088454487  0.2597056561649511  0.4679470199349494
  0.4664707834434880  0.0346247155486964  0.6157937237355806
  0.3819956664043225  0.1475935178553080  0.6407432659943271
  0.6196008716117680  0.0648567202519610  0.7838661972707641
  0.5489431673695135  0.2637015055611023  0.8781885177066844
  0.5868116716849032  0.1765298646309208  0.7219924552456066
  0.4012811816839056  0.2758543824908840  0.7919024255058494
  0.5185494567373556  0.0773763222293537  0.8790040251908680
  0.4071446041918852  0.5029795308750677  0.9730517979863121
  0.6125324518373549  0.4278814657353767  0.1397831944195905
  0.5465592745103112  0.6244510824174947  0.2059945430610350
  0.5969244193972514  0.5558956004169467  0.0046084115701068
  0.4384393469688119  0.6290665562909584  0.0858392797621724
  0.4808803010508197  0.4200739227499781  0.2252341760225698
  0.4063191538292650  0.5138182294590030  0.3343377201682448
  0.5998757205679007  0.4286806727902961  0.4657263478673929
  0.4953140580437153  0.5532502249980996  0.5256382541118237
  0.6431134407131589  0.5234518677088537  0.3198031730586592
  0.3847261057141597  0.6135046668341451  0.4509888181361242
  0.4757449866621755  0.3711481488276137  0.5845483852571087
  0.4234410935446504  0.4915346748275106  0.6940335163111875
  0.5963894876739413  0.4135350779561159  0.7558199247007706
  0.5543447238465584  0.5587014959009806  0.8344767273941821
  0.6221229291683615  0.5529103940441609  0.6517268071139151
  0.3801740655490249  0.5717578691958104  0.7964405755447167
  0.4921766413298706  0.3837162816090497  0.8978875702850238
  0.4138222596956542  0.7762752030248887  0.9913875997374862
  0.6302176987480091  0.7812289898329470  0.1404309346763580
  0.5561213424832742  0.9401202241127420  0.2002664355367692
  0.6124172608176965  0.8810199960615345  0.9888667792803473
  0.4154759308096502  0.9250821644215512  0.0935034119897068
  0.4565395950821621  0.7315866894739044  0.2365797930182282
  0.4185874336695296  0.8736181095373452  0.3157298195612183
  0.5607567171845788  0.7047767887331018  0.4168732317167625
  0.5264214567375167  0.9200329624663441  0.5310354891490460
  0.6099902986264317  0.8492406729637115  0.3174304840830438
  0.4139660981300436  0.9787836247175005  0.4521626255052756
  0.5144079647880409  0.7165836364752168  0.5749236763044722
  0.4212252822994298  0.8545586429341270  0.6650556932144553
  0.5564908291637785  0.6970047727561406  0.7717412821094706
  0.5207065549621437  0.8973134827303789  0.8556001681052683
  0.6024133174008838  0.8558120326511984  0.6724601771483112
  0.4088512352540220  0.9616082244268073  0.7546273477708442
  0.5035255260163370  0.6909048763128478  0.9247472519079906
  0.7335512420615453  0.1601443466831254  0.9880850175878558
  0.9402722274965286  0.1167141186427734  0.1562369817413518
  0.8232586465474279  0.2291404525624639  0.2318003252190413
  0.8926978181065317  0.1406812190440640  0.0191039177951788
  0.7409908689595778  0.2889011354338347  0.1050623763767314
  0.7620225777238254  0.0297981922154312  0.2373547638233240
  0.6944777232277586  0.0942583449446961  0.3520134699368034
  0.9104742563891526  0.0355819014793798  0.4459807143028311
  0.8434796245078000  0.2812505769138612  0.5703841901287328
  0.8822528542963570  0.1559140805793979  0.3855697026038265
  0.7862275029120662  0.2511941957096052  0.4495852249152589
  0.7956982619679256  0.0785347975552520  0.5580895540828780
  0.7468540164578212  0.1266982863790593  0.6885758476540395
  0.8879290854449037  0.0936091504472035  0.7834954180269411
  0.9007356439597380  0.2811864388273140  0.9048977874613917
  0.9372519287938110  0.2121101634598587  0.6466152866060733
  0.7747252273138123  0.3021763353812679  0.7760679286085926
  0.7558843195527342  0.0505497367343446  0.8955780899266567
  0.6958103213529148  0.4623667857925773  0.9931023100228078
  0.9488642290834631  0.3858493543588217  0.0844024840636974
  0.8764367981483645  0.6096057492294068  0.2369054566522820
  0.8688485565385927  0.5126719516206026  0.0284552898879449
  0.7471130033263738  0.5951035778583134  0.0978184784065363
  0.8253066703554900  0.4098133305643205  0.2317004719526949
  0.7530802022879798  0.4433270547525451  0.3549459374875965
  0.9818338162727970  0.4375961759248244  0.4401475118918889
  0.8789320053396892  0.6284091333246818  0.5273510917217029
  0.9215384376562151  0.5372885678804774  0.3481049750719131
  0.7237759490726576  0.6311220708165318  0.4371859616096567
  0.7912314375417516  0.4258066699120452  0.5299158445992761
  0.7774842746735925  0.4925738659361444  0.6978497071627929
  0.9632584800323971  0.4414372632865028  0.8126803578939894
  0.8235537370678578  0.6019791015278207  0.9012573978803358
  0.9475024872181490  0.5391210629126427  0.6354222985733374
  0.7178428696401369  0.6088839215328977  0.7829769906757060
  0.8070509134152456  0.3931791160473083  0.9160677891723675
  0.7306026343227046  0.8017245047388040  0.9759896957885127
  0.9387443671395506  0.7420429646530378  0.1156363251225704
  0.8688772243509083  0.9375133737184256  0.2364999758474529
  0.9397151916418440  0.8802100906223043  0.0205938855817712
  0.7964113680372134  0.9435190006566978  0.0817717513731589
  0.7908821148182986  0.7460910469404956  0.2180716520140457
  0.7806011322165939  0.8172260077468990  0.3883525300060864
  0.9352929245585915  0.7991355341322510  0.4461910140054632
  0.8514109122222344  0.9272251481155432  0.5755551751117887
  0.9535891606467808  0.8529802963457801  0.2932311335496941
  0.7175409335738731  0.9201043224744008  0.4648879090794351
  0.7517799371764732  0.7340298125766790  0.5562504885855664
  0.7553566997874622  0.8400926453785778  0.7132745126977629
  0.9510937414932314  0.7359401081613969  0.7946468431921401
  0.8348478782001855  0.9473762385417013  0.8833455603281125
  0.9136836221632924  0.8413306294840356  0.6799368276676822
  0.6651345240509936  0.9106961375654199  0.7979126835815172
  0.7920962857813607  0.7562820185505326  0.8667863715113255
  0.1914907428566414  0.9974506716448468  0.1601145097849148
  0.1845631932379691  0.1509942851328698  0.2982458734576418
  0.0110374554030896  0.1941042464274002  0.0790004136850786
  0.1578568179527741  0.9869519909122598  0.4899366591631504
  0.1539447574262380  0.1760495221819092  0.6155368038008104
  0.9897946933743793  0.1263239572847452  0.3809315615561048
  0.1581067976775995  0.0014989316192892  0.8093725457808995
  0.1367887171934956  0.1383766804584741  0.9403084499347130
  0.9722293277339362  0.1455457217951053  0.7168547674490894
  0.1967903113168001  0.3350739482640948  0.1851548662058242
  0.1510011080227719  0.4894898059198606  0.2499230069263942
  0.9671915315253545  0.4785539698370523  0.0395372144064364
  0.1891394823829839  0.3555991140098649  0.4713650787493269
  0.1581252689402647  0.4850340510515309  0.6010874248971005
  0.0164957365920252  0.5296042149954168  0.3754306811479940
  0.1548013040711429  0.3165032872073174  0.8383716164040439
  0.1436638791640986  0.4911501784244661  0.9521034933041594
  0.9837525518438180  0.5142815916601507  0.7220275799372469
  0.1620324142519427  0.6586896701429011  0.1554897273247464
  0.1414117145271847  0.7988732012121970  0.2793242920427201
  0.0159609925842788  0.8330363298363542  0.0591275725190256
  0.1989524365061759  0.6903750013850604  0.4948556121299574
  0.1402536317177048  0.8145261825950167  0.6083564833737294
  0.0092539437221130  0.8473050833911892  0.3704399596789636
  0.1634266702940096  0.6701831892503516  0.8418980182890058
  0.1777744065508518  0.8379862326766412  0.9371200268932252
  0.9964529434674404  0.8060011503234408  0.7079309922350552
  0.5207846518957411  0.0091217593122242  0.1465041311607649
  0.5009636743857760  0.1573645945312178  0.2876723027917134
  0.3215761855350954  0.1399517806948735  0.0398923264385633
  0.5021429983514923  0.0076060061858361  0.5301429957416048
  0.5045706635333220  0.1575411766039897  0.6267960501706982
  0.3501807775647275  0.1642670623076488  0.4106412989261789
  0.5040747415505944  0.9863827568740100  0.8256978247854084
  0.5081610408267070  0.1660246205025331  0.9308662744329953
  0.3333598071241441  0.1785739456580496  0.7191911137092153
  0.4779298483457975  0.3225032525224031  0.1839688545179586
  0.5250384975372783  0.5289201650582018  0.2749760034811848
  0.3457940187467840  0.5292509719280819  0.0619123937121171
  0.5276170455815221  0.3380712258520939  0.5252951470880293
  0.4910553089285919  0.4835941972181480  0.6114833714621360
  0.3415149399102872  0.5492512638365404  0.3695706788612662
  0.5249530711078735  0.3380744017060625  0.8257152141951001
  0.5005536385003222  0.4807250494616412  0.9354163343113958
  0.3202870174474750  0.4806723513086414  0.7274608234371567
  0.5158186809332821  0.7051735742435751  0.1717444066074774
  0.4957155307259652  0.8476294790695412  0.2651698757343475
  0.3392222091810881  0.8077714865601998  0.0421496662105589
  0.5004173972375496  0.6526439333977762  0.4950471100147656
  0.5076090257502240  0.8295546636311986  0.6135219935208072
  0.3611515905497094  0.8753937494341422  0.3930708966677828
  0.4855995241027711  0.6144609637802578  0.8437366294698410
  0.4999389700867798  0.7983683104815037  0.9265321115926357
  0.3288169956686758  0.8582326086675569  0.7259249921400064
  0.8318521179396497  0.0133683362695451  0.1840881850023678
  0.8085778616690554  0.1388734308583960  0.3133302735368028
  0.6730026653333254  0.1831070197479277  0.0515296927474213
  0.8221674957918124  0.9898103213169190  0.5121397639440258
  0.8315738662537608  0.1688992067541674  0.6051096242870098
  0.6682821497490623  0.1666245441843215  0.4068086590036010
  0.7839052174191874  0.0017761139459055  0.8270350769696742
  0.8261944271951104  0.1619377418222387  0.9438468850431947
  0.6918144920505154  0.1748600319446581  0.7376974900714390
  0.8277469660934702  0.3186942828341993  0.1705949973647843
  0.8324198944231813  0.4999598013333879  0.2873136470643501
  0.6463365222223334  0.5022616774317965  0.0586509056979507
  0.8685200823896926  0.3658202607556096  0.4903444038192758
  0.8357943399511679  0.5200925264688944  0.5885128826935446
  0.6841033520724741  0.5004160264833907  0.3940421265911154
  0.8563445844864744  0.3527540980936307  0.8505296792786147
  0.8018312690937689  0.4907509959706808  0.9424360959829513
  0.6889694247015764  0.5288496031506824  0.7095243641680548
  0.8217713841303467  0.6603392129025900  0.1641015481278726
  0.8166837542292147  0.8252723406670317  0.2894577081865795
  0.6799778608546737  0.8417637146707813  0.0413640300854272
  0.8258216558709902  0.7010191845535382  0.4874665882724599
  0.8064664757097921  0.8262025218557351  0.6411454729616216
  0.6663923156446939  0.8360999805082912  0.3942481016251099
  0.8321241374575573  0.6846320007516479  0.8333206256733358
  0.8329101730261679  0.8507819965395222  0.9288305333178981
  0.6376184930975414  0.8179604696580075  0.7447600661458849
 
  0.14155451E-01 -0.81876805E-02  0.66546264E-03
 -0.14983984E-01 -0.14992630E-01  0.23791493E-01
  0.36767704E-02  0.21085483E-01  0.16396339E-01
  0.29495976E-01 -0.46972451E-02 -0.16296712E-02
  0.14924087E-01  0.65736527E-02 -0.14605657E-01
  0.10004382E-01 -0.95110042E-02 -0.58156567E-03
  0.95781297E-02  0.14467927E-01  0.14015962E-01
 -0.11528066E-01  0.79313617E-02 -0.37900180E-02
 -0.13227262E-01  0.20099226E-01 -0.33875782E-01
 -0.81459926E-03 -0.17053710E-01  0.20030854E-01
  0.23608443E-01 -0.66192287E-02  0.36804334E-02
 -0.10628527E-01 -0.16877195E-02  0.87457473E-02
  0.23782883E-02  0.35846614E-02 -0.11002452E-01
 -0.16766555E-01  0.74892700E-03 -0.37116038E-02
  0.79534943E-02 -0.20480372E-02 -0.52274663E-02
  0.65703970E-02  0.61335202E-02  0.12541492E-01
 -0.13172880E-01  0.47565485E-02 -0.38805300E-02
 -0.21362351E-02 -0.34093864E-01 -0.51402390E-02
 -0.95272747E-02 -0.14511071E-01 -0.60218855E-04
  0.64034225E-02 -0.11403508E-01  0.26526064E-01
 -0.42725482E-01 -0.33188751E-02  0.49518755E-02
  0.19287623E-01 -0.12310766E-01  0.38410747E-03
  0.10871227E-01  0.12839143E-01 -0.17927854E-02
  0.24910172E-01 -0.18496833E-01 -0.40082406E-02
 -0.53168497E-02 -0.57545364E-02 -0.26237243E-01
 -0.30722751E-02  0.13558438E-01  0.20673632E-01
 -0.14426605E-01 -0.22468170E-01 -0.15005244E-02
  0.10302611E-01  0.32423876E-02 -0.38830106E-02
 -0.10010614E-01 -0.10716385E-01  0.36933619E-02
  0.64012429E-02  0.42260207E-02  0.83321189E-02
  0.17576319E-01 -0.72657688E-03  0.91477820E-02
 -0.19484399E-02 -0.61611869E-02 -0.27610026E-02
 -0.14695676E-01  0.96047353E-02 -0.13793313E-01
  0.69973581E-02 -0.10513851E-01  0.15082057E-01
  0.35456024E-01 -0.11539472E-01 -0.39066854E-01
 -0.26269142E-02  0.12931732E-01 -0.16274420E-03
  0.20144916E-01 -0.25328530E-02 -0.69574188E-02
 -0.14492553E-01  0.40896094E-03 -0.40813530E-01
 -0.10635000E-01 -0.86522133E-02 -0.25239829E-04
  0.19148253E-01 -0.28700970E-03  0.26488934E-02
 -0.68999160E-02 -0.27122652E-01 -0.80127431E-04
  0.10619579E-01  0.11179569E-01  0.80044748E-02
 -0.22792935E-01 -0.22516511E-02  0.94486717E-02
  0.95340397E-02 -0.30189218E-01 -0.84594691E-02
  0.57516844E-03  0.96904444E-02 -0.44024537E-02
  0.33964138E-02  0.32950307E-02 -0.19530680E-01
  0.10615489E-01  0.13206232E-01 -0.15415127E-02
  0.82557565E-02 -0.10965303E-03  0.59709169E-02
  0.24174519E-01  0.30642963E-02  0.49542161E-02
 -0.99837846E-03 -0.31852390E-01  0.26981222E-01
 -0.52152898E-02 -0.21417620E-01  0.14802439E-01
  0.11531523E-03  0.13420951E-01 -0.13894659E-01
  0.24011579E-01 -0.30845425E-02 -0.29620792E-01
  0.82701202E-02 -0.90877512E-02  0.49792301E-02
  0.20303696E-02 -0.23219467E-01 -0.40740251E-03
  0.14999124E-01 -0.68700428E-02 -0.21412870E-02
 -0.17135552E-02  0.53118565E-02 -0.90373865E-02
 -0.21096076E-02  0.60211549E-02 -0.45334243E-02
  0.96757931E-02 -0.53730926E-02  0.21052632E-02
  0.39044885E-02 -0.37685859E-02  0.58425585E-02
 -0.15073007E-01  0.11513934E-01  0.33084400E-02
 -0.30956922E-03  0.52356517E-02 -0.16208741E-01
 -0.79077904E-02  0.13647549E-01 -0.13122462E-01
  0.52817597E-02 -0.28547124E-02 -0.12786771E-01
  0.99664223E-03  0.32977374E-01  0.35875411E-02
 -0.16833727E-01 -0.11270462E-01  0.22610022E-01
 -0.30447365E-01  0.13433857E-01 -0.14629160E-01
  0.27427147E-01  0.18803666E-01  0.11886965E-01
 -0.19878478E-02 -0.93453053E-04  0.57731821E-02
 -0.58694580E-02 -0.15061740E-01  0.28489830E-01
  0.25052724E-01  0.19207286E-02  0.13115716E-01
  0.74602154E-02 -0.20695303E-01  0.24584606E-01
 -0.93501486E-02  0.39458411E-02 -0.71810607E-02
  0.61325918E-02 -0.81691271E-02  0.18191819E-02
  0.20874287E-01  0.84841462E-02 -0.37351958E-01
 -0.11262445E-01 -0.66435968E-02  0.86524569E-03
 -0.15772060E-01 -0.25237034E-02  0.15077172E-01
 -0.11684723E-02 -0.54196898E-02 -0.14419832E-01
  0.11730583E-01  0.17993275E-02 -0.10376357E-01
  0.29307882E-03 -0.44480876E-02  0.10709434E-02
 -0.23611747E-01  0.13840839E-01 -0.46501966E-02
  0.45366550E-02 -0.36790362E-03  0.72124701E-02
  0.74585023E-02 -0.19609226E-01  0.24295098E-01
 -0.26704601E-02 -0.71745704E-02 -0.92809475E-03
  0.52318841E-02 -0.59040646E-02 -0.13482598E-03
  0.38086735E-02  0.23838998E-01 -0.38697161E-01
  0.66330056E-02  0.15139651E-01  0.14597039E-01
  0.14562087E-01  0.19439759E-01 -0.12422217E-01
 -0.31564881E-01  0.10811459E-01 -0.98853789E-02
 -0.33805421E-03 -0.16536524E-01 -0.20768863E-01
  0.10164795E-01 -0.11133654E-01  0.29379157E-01
 -0.16629475E-01  0.69605907E-02  0.12893332E-01
  0.13162113E-01 -0.54555164E-02  0.14037073E-01
  0.35448478E-02  0.17479439E-01 -0.18585383E-02
  0.46798949E-02  0.17138034E-01  0.63821926E-02
  0.15300849E-01  0.18784157E-01  0.33097597E-02
 -0.10770991E-01  0.34721176E-01 -0.13153641E-01
  0.10081808E-01 -0.79587442E-02 -0.76704256E-02
 -0.32620339E-01 -0.57987363E-03 -0.12653114E-01
 -0.11002439E-02  0.18849124E-02 -0.13145388E-01
  0.78678192E-02  0.15201745E-01 -0.97020638E-02
  0.62166411E-02 -0.65134773E-02  0.17278675E-01
 -0.87763688E-02 -0.17076241E-01  0.40307278E-02
 -0.18261957E-02 -0.77174045E-02 -0.11449007E-01
  0.99730297E-02  0.36787886E-03 -0.11745144E-01
 -0.24217168E-03 -0.72949193E-02  0.27462288E-01
  0.31503305E-03 -0.82186681E-02  0.42208721E-03
  0.22262969E-01 -0.11805021E-01 -0.13829063E-01
 -0.38711222E-02 -0.12369089E-01 -0.83134964E-02
 -0.55038716E-02 -0.14688080E-01  0.17916799E-01
 -0.76271811E-02 -0.18436548E-01 -0.28261765E-01
 -0.57621851E-02  0.25707605E-02 -0.91724749E-02
  0.47598232E-02  0.19832860E-01 -0.51157926E-02
  0.21871939E-01  0.17642447E-03  0.18743043E-01
  0.42456401E-02  0.17877250E-02 -0.48963277E-02
 -0.76681699E-02 -0.15663888E-01  0.10321654E-01
  0.38353820E-02  0.80979264E-02 -0.85257430E-02
  0.83187215E-02 -0.10161809E-01 -0.61532657E-02
 -0.56150307E-02 -0.18868486E-01  0.59230107E-02
 -0.18805577E-01  0.30908206E-01 -0.14307454E-01
 -0.48658103E-03  0.38741183E-01  0.83379787E-02
  0.13797308E-01 -0.25065534E-01 -0.30330108E-01
 -0.28538375E-02  0.19434362E-01  0.12117101E-01
 -0.22704461E-01 -0.13560866E-01 -0.38278237E-03
 -0.10153435E-01 -0.13409473E-01 -0.40842124E-01
  0.73696031E-02 -0.29917689E-01 -0.44366212E-02
 -0.63443097E-02  0.85206488E-02 -0.14597952E-01
 -0.25109991E-01 -0.10279869E-01  0.73365358E-02
  0.26527544E-01 -0.19326412E-01 -0.15393458E-01
  0.15022161E-01  0.19628333E-01 -0.15751973E-01
 -0.74141482E-02  0.19474500E-01  0.25350402E-02
 -0.32422792E-02 -0.31788650E-02  0.19617852E-01
 -0.31118149E-02  0.18900023E-01 -0.53796746E-02
  0.76465926E-02  0.20482790E-01  0.15052954E-01
 -0.84747564E-02  0.26803389E-01  0.71680609E-02
 -0.12943198E-01  0.88324735E-02  0.41740996E-03
 -0.58647130E-02  0.18483305E-01 -0.69137224E-02
 -0.26991729E-02 -0.67830812E-03  0.22621184E-02
  0.13513790E-01 -0.59440447E-03 -0.62764528E-02
  0.71862630E-02 -0.22826926E-01  0.59085573E-03
 -0.19103944E-01  0.12271242E-01  0.13724123E-01
  0.22257224E-01  0.12362574E-01  0.10277858E-02
  0.68666299E-02 -0.10330736E-01  0.13078008E-01
 -0.11252066E-01  0.86324083E-02 -0.18698287E-02
  0.84825495E-02  0.67724823E-02  0.33329681E-02
 -0.11789315E-01  0.47573495E-03 -0.29674707E-01
 -0.14443230E-01 -0.84103425E-02 -0.35272348E-02
 -0.24845731E-01  0.70632082E-02  0.53778261E-02
  0.54833375E-02 -0.17711854E-01  0.92244680E-02
 -0.25286139E-01  0.19524789E-01 -0.11090302E-02
  0.94096430E-03  0.56795662E-02 -0.61345436E-02
 -0.25630379E-02  0.95563785E-02  0.28872643E-01
  0.78858471E-02  0.24546243E-01  0.17942312E-03
  0.18098420E-01  0.21779493E-01  0.46732290E-02
 -0.30999881E-02 -0.22762517E-02 -0.47250518E-02
 -0.11935214E-01  0.22670101E-01 -0.53394968E-03
 -0.81229856E-02 -0.12560836E-01 -0.79045910E-02
 -0.18814846E-02  0.73502171E-02 -0.20009183E-01
  0.36953280E-02  0.16549824E-02  0.29855780E-02
 -0.37304770E-02  0.48100603E-02  0.15692162E-01
 -0.26408080E-02 -0.11442682E-01  0.31026161E-01
 -0.17664685E-02  0.30662778E-02 -0.84855247E-02
  0.19873020E-01 -0.34551175E-02  0.83653182E-03
  0.92237757E-02 -0.35778314E-02  0.75088073E-02
 -0.24711800E-01 -0.12041496E-01  0.16293031E-02
 -0.10172895E-01 -0.64714660E-02  0.32584743E-02
  0.72397733E-02 -0.79661492E-02 -0.14614517E-01
 -0.23272913E-01  0.47530095E-02 -0.95433364E-03
  0.13225283E-01 -0.10555595E-01  0.27901047E-02
 -0.13194799E-01  0.67061082E-02  0.18902860E-01
 -0.13772483E-01 -0.87668377E-02  0.17949010E-01
 -0.17624489E-01 -0.11908047E-01  0.16709677E-01
  0.14116498E-01  0.34248097E-03 -0.11197844E-01
 -0.30842345E-02  0.94419939E-02  0.20949926E-02
 -0.95207631E-02 -0.31080709E-02 -0.63468066E-02
  0.14888576E-02  0.55690955E-02 -0.14976112E-01
  0.98781962E-02 -0.96211628E-02  0.14868772E-01
  0.28340206E-02 -0.48440706E-02  0.39551177E-02
  0.58907242E-03 -0.11643467E-01  0.48774301E-02
  0.10921319E-01  0.97881438E-02 -0.45104742E-02
 -0.16816028E-03  0.94409258E-02 -0.28687110E-02
 -0.32400933E-02 -0.52844814E-02 -0.94516269E-02
 -0.99913543E-02 -0.40855131E-03 -0.85884212E-02
  0.16237106E-01 -0.10273891E-01  0.78353882E-02
 -0.33094982E-02  0.61302009E-02  0.13831110E-01
 -0.32204830E-02 -0.34110662E-03  0.49316806E-02
  0.90931237E-02 -0.29455713E-02 -0.15829507E-01
 -0.64190478E-02  0.10546805E-01 -0.25435473E-02
  0.59091656E-02  0.14732384E-01  0.92126686E-02
 -0.12146092E-01 -0.12173229E-01 -0.16144693E-01
  0.15193755E-01  0.10026531E-01 -0.83008835E-02
  0.90188130E-02  0.11569301E-01  0.26828343E-02
 -0.46660303E-03 -0.39859302E-04 -0.10251315E-01
  0.81196572E-02 -0.76257000E-02  0.23070465E-01
  0.83141025E-03 -0.13943120E-01  0.57336867E-02
  0.11072136E-01 -0.34453167E-02 -0.18798590E-02
 -0.15092170E-01 -0.12466064E-02 -0.12299567E-01
  0.75561288E-02 -0.12501581E-01  0.15105177E-01
 -0.87535496E-03  0.24908129E-01  0.29002125E-01
  0.56872258E-02  0.18209103E-02 -0.96907620E-02
  0.39752991E-02  0.13675283E-01 -0.11794890E-01
 -0.11861572E-02 -0.93931962E-03 -0.15536567E-01
 -0.15379574E-02 -0.29046265E-02  0.89979235E-02
 -0.15776506E-01  0.25046409E-02  0.15877280E-02
 -0.60999943E-02 -0.81929334E-04 -0.83986433E-02
  0.47112746E-02 -0.13917943E-01 -0.28167006E-02
 -0.18397777E-03  0.46643850E-04  0.10597353E-01
 -0.94149891E-02  0.12090980E-01 -0.29123051E-03
  0.22617852E-01 -0.90056398E-04  0.21142114E-02
 -0.21742984E-01 -0.90879558E-03 -0.19537293E-02
 -0.31201745E-02  0.11943632E-01 -0.58621475E-02
 -0.70834864E-02 -0.11753771E-01  0.98627680E-02
 -0.86094817E-02 -0.53173718E-02  0.10108305E-01
  0.29857514E-02  0.87527907E-02  0.21816232E-01
 -0.10093653E-01  0.63744602E-02  0.14578288E-01
 -0.10824190E-01 -0.52445173E-02 -0.49908634E-02
 -0.13896292E-01 -0.98017139E-02  0.11118336E-02
 -0.80430463E-02 -0.45738345E-02  0.11766805E-01
  0.14062729E-01 -0.30081191E-02  0.80182984E-02
 -0.11692787E-01  0.79591281E-02 -0.11635156E-01
  0.24661401E-01  0.80350937E-02  0.68917922E-02
  0.53901889E-02  0.66800832E-02  0.51557368E-02
  0.16011105E-01 -0.12410801E-01  0.54658804E-02
 -0.31245128E-02  0.16347903E-01 -0.25611069E-01
  0.12076400E-01 -0.35048854E-02 -0.48241292E-02
  0.41113607E-02  0.58621724E-03  0.68721561E-02
  0.14595253E-02 -0.94346686E-02 -0.11796017E-01
 -0.16276115E-01  0.18100319E-01  0.14735224E-01
 -0.18588230E-03 -0.24872022E-02  0.42206073E-02
  0.26583765E-04 -0.32679381E-01 -0.73581784E-02
 -0.51418515E-02 -0.37969958E-02 -0.16334271E-01
  0.14606271E-02 -0.77641929E-02 -0.12437599E-02
  0.11212306E-01  0.16620914E-01 -0.25026560E-02
 -0.86803202E-03  0.53373811E-02  0.50861210E-02
  0.18703207E-02  0.12624535E-01 -0.84395930E-03
  0.85461356E-02  0.22920585E-02  0.10439498E-01
 -0.15344491E-01  0.70266477E-02 -0.14675631E-01
 -0.71675021E-02  0.23087795E-02  0.61547580E-02
 -0.44358873E-02 -0.67351329E-02  0.58178184E-02
  0.24961838E-02 -0.29466657E-02 -0.14042978E-01
 -0.19508619E-01 -0.80368690E-02 -0.13208056E-01
  0.47873394E-02  0.10803772E-02  0.15717694E-02
  0.46052677E-02  0.31605705E-02  0.93813627E-02
 
           1
  0.500000000000000     
  0.10819491E+01  0.33804195E-03 -0.67485570E-17  0.00000000E+00
  0.49304691E-01  0.10193824E+00  0.99394189E+00
  0.24898746E+00  0.92753583E-02  0.64424330E-01
  0.22979284E+00  0.28129270E+00  0.25286974E+00
  0.23473440E+00  0.17334859E+00  0.12354710E-01
  0.11231344E+00  0.29780403E+00  0.91431317E-01
  0.22349103E+00  0.97453720E-01  0.23916878E+00
  0.58370060E-01  0.94820059E-01  0.31848022E+00
  0.27788610E+00  0.58010393E-01  0.45203811E+00
  0.21348826E+00  0.28137919E+00  0.54690570E+00
  0.25036513E+00  0.16744275E+00  0.37696518E+00
  0.92120200E-01  0.24571046E+00  0.41798192E+00
  0.13198692E+00  0.67641181E-01  0.53925933E+00
  0.21846164E-01  0.82501944E-01  0.67735618E+00
  0.25030220E+00  0.10277572E+00  0.77643567E+00
  0.20083724E+00  0.26262125E+00  0.89272740E+00
  0.23647744E+00  0.19885414E+00  0.68509138E+00
  0.65478689E-01  0.28125283E+00  0.73887511E+00
  0.10359421E+00  0.37272769E-01  0.87764235E+00
  0.99421403E+00  0.46148585E+00  0.93741786E+00
  0.28506950E+00  0.43890855E+00  0.13452432E+00
  0.16389994E+00  0.55652388E+00  0.17166140E+00
  0.22340627E+00  0.51465711E+00  0.21853181E-01
  0.57009968E-01  0.59122789E+00  0.87164131E-01
  0.12185609E+00  0.37133361E+00  0.22167547E+00
  0.58703381E-01  0.47412365E+00  0.30265538E+00
  0.26369525E+00  0.42913017E+00  0.40014018E+00
  0.19801168E+00  0.60297369E+00  0.57036084E+00
  0.23611204E+00  0.53932877E+00  0.32010204E+00
  0.13411488E+00  0.61929462E+00  0.40818252E+00
  0.14161953E+00  0.40086147E+00  0.53268921E+00
  0.52616521E-01  0.46791079E+00  0.65476593E+00
  0.23905245E+00  0.37550484E+00  0.76809301E+00
  0.19526807E+00  0.59322812E+00  0.89222826E+00
  0.28747473E+00  0.50366153E+00  0.64482691E+00
  0.81082371E-01  0.60922941E+00  0.77903218E+00
  0.16292212E+00  0.42922799E+00  0.86991638E+00
  0.95409071E-01  0.79835189E+00  0.20211835E-01
  0.26221138E+00  0.73872012E+00  0.11248231E+00
  0.19879289E+00  0.90279838E+00  0.20684364E+00
  0.25830085E+00  0.81272036E+00  0.98568160E+00
  0.86992728E-01  0.93544521E+00  0.11310514E+00
  0.10485623E+00  0.68388884E+00  0.23840900E+00
  0.56995523E-01  0.77216310E+00  0.35239150E+00
  0.29513042E+00  0.80675021E+00  0.48581602E+00
  0.16450473E+00  0.90554463E+00  0.54761748E+00
  0.23761347E+00  0.85781502E+00  0.36525495E+00
  0.90872814E-01  0.96366248E+00  0.40847600E+00
  0.11471825E+00  0.71934494E+00  0.53467247E+00
  0.13403275E-01  0.72979905E+00  0.64285889E+00
  0.27670273E+00  0.75215778E+00  0.79313947E+00
  0.22499775E+00  0.94378865E+00  0.89120318E+00
  0.24563680E+00  0.86120896E+00  0.65519921E+00
  0.10942338E+00  0.91275236E+00  0.72764750E+00
  0.13027701E+00  0.76312778E+00  0.86724994E+00
  0.40807381E+00  0.14953822E+00  0.99967294E+00
  0.60183188E+00  0.49351667E-01  0.78331241E-01
  0.52670151E+00  0.25862812E+00  0.22819472E+00
  0.56859607E+00  0.17567368E+00  0.17987151E-01