(Si O2)81  (P1) ~ 3x3x3Supersel (VASP)  
   1.00000000000000     
    14.9916000000000000    0.0000000000000000    0.0000000000000000
    -7.4957993700000003   12.9831068100000007    0.0000000000000000
     0.0000006000000000    0.0000010400000000   16.3712997000000016
   O    Si
   162    81
Direct
  0.0489902380922441  0.1022535572659377  0.9939215643433731
  0.2497758985500148  0.0098527482712940  0.0636977081943144
  0.2292641948104615  0.2804806676423841  0.2523689707419043
  0.2338410983252105  0.1735294835649311  0.0124044825654785
  0.1116891128894140  0.2975508664332381  0.0918773925526882
  0.2233405025656370  0.0978200042942813  0.2391865397512156
  0.0577720183076555  0.0942628759048962  0.3180521527418641
  0.2781178620327018  0.0577049440208510  0.4521538616247041
  0.2135423887720936  0.2806051381938975  0.5479403126607392
  0.2507206834086080  0.1680995119708807  0.3763534153462722
  0.0914602693608972  0.2459653802379584  0.4178695123273196
  0.1323739039637631  0.0677061773615874  0.5389922196555170
  0.0216978182438222  0.0823638927498432  0.6776922089027356
  0.2508469735005606  0.1027468748108426  0.7765490237855185
  0.2006114080070705  0.2627001236511126  0.8928870576662542
  0.2361402021929924  0.1986179310695091  0.6847083520640963
  0.0658264403624754  0.2810696523341896  0.7389936227452523
  0.1043219635303298  0.0385857778843012  0.8777993443316635
  0.9948112086323957  0.4620446925023501  0.9374197019654787
  0.2850755170490797  0.4393477176069206  0.1337141802362757
  0.1653888316643715  0.5566516910086956  0.1715101669674111
  0.2230000441002838  0.5151312173165840  0.0218414500422927
  0.0564001627316948  0.5907334331941230  0.0872188851565885
  0.1213814580785851  0.3720459564838179  0.2217978851555671
  0.0589915166842461  0.4743452650706713  0.3034566948523644
  0.2635366331879906  0.4286080130491278  0.3995087807777473
  0.1989254786930367  0.6038389727039631  0.5704066670004695
  0.2357059879936113  0.5392038969737651  0.3202206356906193
  0.1346551017291104  0.6197073226606833  0.4080697152918032
  0.1413246566956020  0.4006987199992413  0.5324347355318634
  0.0520443067443552  0.4679387727619845  0.6544865472642462
  0.2392360748808710  0.3757421175531700  0.7681773385103353
  0.1955732508634646  0.5928582221736880  0.8926495218265545
  0.2874438049793336  0.5040664320060347  0.6443662815843384
  0.0801220433256334  0.6096738116567461  0.7802253270244444
  0.1627607248790945  0.4287299638711706  0.8699213457700676
  0.0947859692064120  0.7984494370530911  0.0204243235560599
  0.2626868631388031  0.7387043690151109  0.1137288092538231
  0.1993141971368071  0.9031315895291112  0.2068444117369825
  0.2576677446285995  0.8127314167267562  0.9856006958926308
  0.0877451223911922  0.9364897413644704  0.1131075852005886
  0.1042867776395663  0.6834583003241350  0.2381645310186143
  0.0577990708372624  0.7722498127332725  0.3521029271519679
  0.2953937586073601  0.8079128451333838  0.4860743844809107
  0.1642989498378052  0.9051714327341288  0.5477519360507294
  0.2374367491487778  0.8576881237142066  0.3658514394704862
  0.0902644699048638  0.9631538854994228  0.4085230839211131
  0.1144450105155676  0.7193491595311915  0.5344901139266076
  0.0125380004821628  0.7296810431057472  0.6427075831609037
  0.2773493686259390  0.7533844676987255  0.7923154282294347
  0.2255841021317439  0.9446134744162936  0.8907510932374165
  0.2453745189246898  0.8606920965198519  0.6556235677677050
  0.1086819413450690  0.9128711465951591  0.7285521526942665
  0.1301761798212814  0.7634777654740131  0.8670978677756143
  0.4084532049220258  0.1504324405740787  0.9996853875614845
  0.6014639216083055  0.0496162436757696  0.0783966386738193
  0.5266563811610424  0.2584235481881418  0.2284707347391781
  0.5685504836928879  0.1754417994961229  0.0181256075079905
  0.3828586128135646  0.2469037275459060  0.1159156140720978
  0.4875934564991427  0.0668262270377388  0.2226807407722806
  0.3920913175950031  0.1245035368663727  0.3330044391026967
  0.6186915292077688  0.1064301067898371  0.5002445628354373
  0.5537574332321685  0.2455746476042259  0.5605004911304499
  0.5985782227157216  0.1997819330268787  0.3546256335908212
  0.4276763088454487  0.2597056561649511  0.4679470199349494
  0.4664707834434880  0.0346247155486964  0.6157937237355806
  0.3819956664043225  0.1475935178553080  0.6407432659943271
  0.6196008716117680  0.0648567202519610  0.7838661972707641
  0.5489431673695135  0.2637015055611023  0.8781885177066844
  0.5868116716849032  0.1765298646309208  0.7219924552456066
  0.4012811816839056  0.2758543824908840  0.7919024255058494
  0.5185494567373556  0.0773763222293537  0.8790040251908680
  0.4071446041918852  0.5029795308750677  0.9730517979863121
  0.6125324518373549  0.4278814657353767  0.1397831944195905
  0.5465592745103112  0.6244510824174947  0.2059945430610350
  0.5969244193972514  0.5558956004169467  0.0046084115701068
  0.4384393469688119  0.6290665562909584  0.0858392797621724
  0.4808803010508197  0.4200739227499781  0.2252341760225698
  0.4063191538292650  0.5138182294590030  0.3343377201682448
  0.5998757205679007  0.4286806727902961  0.4657263478673929
  0.4953140580437153  0.5532502249980996  0.5256382541118237
  0.6431134407131589  0.5234518677088537  0.3198031730586592
  0.3847261057141597  0.6135046668341451  0.4509888181361242
  0.4757449866621755  0.3711481488276137  0.5845483852571087
  0.4234410935446504  0.4915346748275106  0.6940335163111875
  0.5963894876739413  0.4135350779561159  0.7558199247007706
  0.5543447238465584  0.5587014959009806  0.8344767273941821
  0.6221229291683615  0.5529103940441609  0.6517268071139151
  0.3801740655490249  0.5717578691958104  0.7964405755447167
  0.4921766413298706  0.3837162816090497  0.8978875702850238
  0.4138222596956542  0.7762752030248887  0.9913875997374862
  0.6302176987480091  0.7812289898329470  0.1404309346763580
  0.5561213424832742  0.9401202241127420  0.2002664355367692
  0.6124172608176965  0.8810199960615345  0.9888667792803473
  0.4154759308096502  0.9250821644215512  0.0935034119897068
  0.4565395950821621  0.7315866894739044  0.2365797930182282
  0.4185874336695296  0.8736181095373452  0.3157298195612183
  0.5607567171845788  0.7047767887331018  0.4168732317167625
  0.5264214567375167  0.9200329624663441  0.5310354891490460
  0.6099902986264317  0.8492406729637115  0.3174304840830438
  0.4139660981300436  0.9787836247175005  0.4521626255052756
  0.5144079647880409  0.7165836364752168  0.5749236763044722
  0.4212252822994298  0.8545586429341270  0.6650556932144553
  0.5564908291637785  0.6970047727561406  0.7717412821094706
  0.5207065549621437  0.8973134827303789  0.8556001681052683
  0.6024133174008838  0.8558120326511984  0.6724601771483112
  0.4088512352540220  0.9616082244268073  0.7546273477708442
  0.5035255260163370  0.6909048763128478  0.9247472519079906
  0.7335512420615453  0.1601443466831254  0.9880850175878558
  0.9402722274965286  0.1167141186427734  0.1562369817413518
  0.8232586465474279  0.2291404525624639  0.2318003252190413
  0.8926978181065317  0.1406812190440640  0.0191039177951788
  0.7409908689595778  0.2889011354338347  0.1050623763767314
  0.7620225777238254  0.0297981922154312  0.2373547638233240
  0.6944777232277586  0.0942583449446961  0.3520134699368034
  0.9104742563891526  0.0355819014793798  0.4459807143028311
  0.8434796245078000  0.2812505769138612  0.5703841901287328
  0.8822528542963570  0.1559140805793979  0.3855697026038265
  0.7862275029120662  0.2511941957096052  0.4495852249152589
  0.7956982619679256  0.0785347975552520  0.5580895540828780
  0.7468540164578212  0.1266982863790593  0.6885758476540395
  0.8879290854449037  0.0936091504472035  0.7834954180269411
  0.9007356439597380  0.2811864388273140  0.9048977874613917
  0.9372519287938110  0.2121101634598587  0.6466152866060733
  0.7747252273138123  0.3021763353812679  0.7760679286085926
  0.7558843195527342  0.0505497367343446  0.8955780899266567
  0.6958103213529148  0.4623667857925773  0.9931023100228078
  0.9488642290834631  0.3858493543588217  0.0844024840636974
  0.8764367981483645  0.6096057492294068  0.2369054566522820
  0.8688485565385927  0.5126719516206026  0.0284552898879449
  0.7471130033263738  0.5951035778583134  0.0978184784065363
  0.8253066703554900  0.4098133305643205  0.2317004719526949
  0.7530802022879798  0.4433270547525451  0.3549459374875965
  0.9818338162727970  0.4375961759248244  0.4401475118918889
  0.8789320053396892  0.6284091333246818  0.5273510917217029
  0.9215384376562151  0.5372885678804774  0.3481049750719131
  0.7237759490726576  0.6311220708165318  0.4371859616096567
  0.7912314375417516  0.4258066699120452  0.5299158445992761
  0.7774842746735925  0.4925738659361444  0.6978497071627929
  0.9632584800323971  0.4414372632865028  0.8126803578939894
  0.8235537370678578  0.6019791015278207  0.9012573978803358
  0.9475024872181490  0.5391210629126427  0.6354222985733374
  0.7178428696401369  0.6088839215328977  0.7829769906757060
  0.8070509134152456  0.3931791160473083  0.9160677891723675
  0.7306026343227046  0.8017245047388040  0.9759896957885127
  0.9387443671395506  0.7420429646530378  0.1156363251225704
  0.8688772243509083  0.9375133737184256  0.2364999758474529
  0.9397151916418440  0.8802100906223043  0.0205938855817712
  0.7964113680372134  0.9435190006566978  0.0817717513731589
  0.7908821148182986  0.7460910469404956  0.2180716520140457
  0.7806011322165939  0.8172260077468990  0.3883525300060864
  0.9352929245585915  0.7991355341322510  0.4461910140054632
  0.8514109122222344  0.9272251481155432  0.5755551751117887
  0.9535891606467808  0.8529802963457801  0.2932311335496941
  0.7175409335738731  0.9201043224744008  0.4648879090794351
  0.7517799371764732  0.7340298125766790  0.5562504885855664
  0.7553566997874622  0.8400926453785778  0.7132745126977629
  0.9510937414932314  0.7359401081613969  0.7946468431921401
  0.8348478782001855  0.9473762385417013  0.8833455603281125
  0.9136836221632924  0.8413306294840356  0.6799368276676822
  0.6651345240509936  0.9106961375654199  0.7979126835815172
  0.7920962857813607  0.7562820185505326  0.8667863715113255
  0.1914907428566414  0.9974506716448468  0.1601145097849148
  0.1845631932379691  0.1509942851328698  0.2982458734576418
  0.0110374554030896  0.1941042464274002  0.0790004136850786
  0.1578568179527741  0.9869519909122598  0.4899366591631504
  0.1539447574262380  0.1760495221819092  0.6155368038008104
  0.9897946933743793  0.1263239572847452  0.3809315615561048
  0.1581067976775995  0.0014989316192892  0.8093725457808995
  0.1367887171934956  0.1383766804584741  0.9403084499347130
  0.9722293277339362  0.1455457217951053  0.7168547674490894
  0.1967903113168001  0.3350739482640948  0.1851548662058242
  0.1510011080227719  0.4894898059198606  0.2499230069263942
  0.9671915315253545  0.4785539698370523  0.0395372144064364
  0.1891394823829839  0.3555991140098649  0.4713650787493269
  0.1581252689402647  0.4850340510515309  0.6010874248971005
  0.0164957365920252  0.5296042149954168  0.3754306811479940
  0.1548013040711429  0.3165032872073174  0.8383716164040439
  0.1436638791640986  0.4911501784244661  0.9521034933041594
  0.9837525518438180  0.5142815916601507  0.7220275799372469
  0.1620324142519427  0.6586896701429011  0.1554897273247464
  0.1414117145271847  0.7988732012121970  0.2793242920427201
  0.0159609925842788  0.8330363298363542  0.0591275725190256
  0.1989524365061759  0.6903750013850604  0.4948556121299574
  0.1402536317177048  0.8145261825950167  0.6083564833737294
  0.0092539437221130  0.8473050833911892  0.3704399596789636
  0.1634266702940096  0.6701831892503516  0.8418980182890058
  0.1777744065508518  0.8379862326766412  0.9371200268932252
  0.9964529434674404  0.8060011503234408  0.7079309922350552
  0.5207846518957411  0.0091217593122242  0.1465041311607649
  0.5009636743857760  0.1573645945312178  0.2876723027917134
  0.3215761855350954  0.1399517806948735  0.0398923264385633
  0.5021429983514923  0.0076060061858361  0.5301429957416048
  0.5045706635333220  0.1575411766039897  0.6267960501706982
  0.3501807775647275  0.1642670623076488  0.4106412989261789
  0.5040747415505944  0.9863827568740100  0.8256978247854084
  0.5081610408267070  0.1660246205025331  0.9308662744329953
  0.3333598071241441  0.1785739456580496  0.7191911137092153
  0.4779298483457975  0.3225032525224031  0.1839688545179586
  0.5250384975372783  0.5289201650582018  0.2749760034811848
  0.3457940187467840  0.5292509719280819  0.0619123937121171
  0.5276170455815221  0.3380712258520939  0.5252951470880293
  0.4910553089285919  0.4835941972181480  0.6114833714621360
  0.3415149399102872  0.5492512638365404  0.3695706788612662
  0.5249530711078735  0.3380744017060625  0.8257152141951001
  0.5005536385003222  0.4807250494616412  0.9354163343113958
  0.3202870174474750  0.4806723513086414  0.7274608234371567
  0.5158186809332821  0.7051735742435751  0.1717444066074774
  0.4957155307259652  0.8476294790695412  0.2651698757343475
  0.3392222091810881  0.8077714865601998  0.0421496662105589
  0.5004173972375496  0.6526439333977762  0.4950471100147656
  0.5076090257502240  0.8295546636311986  0.6135219935208072
  0.3611515905497094  0.8753937494341422  0.3930708966677828
  0.4855995241027711  0.6144609637802578  0.8437366294698410
  0.4999389700867798  0.7983683104815037  0.9265321115926357
  0.3288169956686758  0.8582326086675569  0.7259249921400064
  0.8318521179396497  0.0133683362695451  0.1840881850023678
  0.8085778616690554  0.1388734308583960  0.3133302735368028
  0.6730026653333254  0.1831070197479277  0.0515296927474213
  0.8221674957918124  0.9898103213169190  0.5121397639440258
  0.8315738662537608  0.1688992067541674  0.6051096242870098
  0.6682821497490623  0.1666245441843215  0.4068086590036010
  0.7839052174191874  0.0017761139459055  0.8270350769696742
  0.8261944271951104  0.1619377418222387  0.9438468850431947
  0.6918144920505154  0.1748600319446581  0.7376974900714390
  0.8277469660934702  0.3186942828341993  0.1705949973647843
  0.8324198944231813  0.4999598013333879  0.2873136470643501
  0.6463365222223334  0.5022616774317965  0.0586509056979507
  0.8685200823896926  0.3658202607556096  0.4903444038192758
  0.8357943399511679  0.5200925264688944  0.5885128826935446
  0.6841033520724741  0.5004160264833907  0.3940421265911154
  0.8563445844864744  0.3527540980936307  0.8505296792786147
  0.8018312690937689  0.4907509959706808  0.9424360959829513
  0.6889694247015764  0.5288496031506824  0.7095243641680548
  0.8217713841303467  0.6603392129025900  0.1641015481278726
  0.8166837542292147  0.8252723406670317  0.2894577081865795
  0.6799778608546737  0.8417637146707813  0.0413640300854272
  0.8258216558709902  0.7010191845535382  0.4874665882724599
  0.8064664757097921  0.8262025218557351  0.6411454729616216
  0.6663923156446939  0.8360999805082912  0.3942481016251099
  0.8321241374575573  0.6846320007516479  0.8333206256733358
  0.8329101730261679  0.8507819965395222  0.9288305333178981
  0.6376184930975414  0.8179604696580075  0.7447600661458849
 
  0.14155451E-01 -0.81876805E-02  0.66546264E-03
 -0.14983984E-01 -0.14992630E-01  0.23791493E-01
