(Si O2)81  (P1) ~ 3x3x3Supersel (VASP)  
   1.00000000000000     
    14.9916000000000000    0.0000000000000000    0.0000000000000000
    -7.4957993700000003   12.9831068100000007    0.0000000000000000
     0.0000006000000000    0.0000010400000000   16.3712997000000016
   O    Si
   162    81
Direct
  0.0859356860466049  0.1739064162801863  0.9805978324367447
  0.2561257087426884  0.9803499863758475  0.0764864690228625
  0.1840905106330805  0.2270531761326688  0.2415970288824734
  0.2975764904185764  0.1849491316905647  0.0141865494004379
  0.0370842517598084  0.2347830571568824  0.1360823058083109
  0.1599460563739321  0.0692570475150645  0.1972373508638328
  0.0447022720840734  0.0903302459647488  0.3365870908893575
  0.3081043963041113  0.0803395066379580  0.4797336042309996
  0.1712818356394184  0.2230573390974426  0.5263938804010773
  0.2294381613212176  0.1518661682791773  0.3781875499992666
  0.1107944787348045  0.2759601576148465  0.4079056545351217
  0.1689654155080063  0.0848226607645986  0.5560852941603269
  0.0885856590573908  0.1920095469288415  0.6639140413990298
  0.3105004133453994  0.0971945635050231  0.7983720679656615
  0.2308418485431319  0.2705484496591681  0.8981658328758699
  0.2709120627462714  0.2256516637279838  0.6572301193853410
  0.0876444671120286  0.2810260705083819  0.7878921733911961
  0.1260696500136961  0.0650962839325130  0.8732858020483126
  0.0136409022643039  0.4414670591176112  0.9873737479210619
  0.2326358813823790  0.3678432928318268  0.1019901133338375
  0.1544127299552437  0.5619985597554756  0.2149238159736638
  0.2128606376280727  0.5245393722406941  0.0334694953955213
  0.0767732175406509  0.6141038850080229  0.1089944431003166
  0.1165221266263249  0.3630555004902740  0.2507725063648529
  0.0084467729333822  0.4511331626918959  0.3131070704988491
  0.2984973436777549  0.4153009511408579  0.4456697066369926
  0.2123024799755961  0.6065932474271332  0.5451576085548167
  0.2201095984372117  0.5047448062944723  0.3718256435397250
  0.1157168080464814  0.6169315695585066  0.4098132147618518
  0.1198461268259685  0.3823958141605789  0.5440377660596147
  0.1226040291389919  0.5000986850635997  0.6904610950513912
  0.2664583298106823  0.4052138066230924  0.7740610386299017
  0.2323553935766804  0.6020632106937748  0.8781561162681975
  0.2957309178204662  0.5622364518822899  0.6690518674846757
  0.0865179225824756  0.6142959026657131  0.7555015073468102
  0.1562794889794365  0.4021519087406484  0.9094887654143526
  0.0461040301274524  0.8039350036335688  0.9819197575299543
  0.2825934981642511  0.7891324861788640  0.1661718740913369
  0.1339000169158556  0.8520645855503636  0.1765633029030211
  0.2664485850070615  0.8567064588374302  0.9889978888378645
  0.0457951478419639  0.9367106841441245  0.1015788360261721
  0.1072244978488861  0.7076693630529970  0.2625774978152601
  0.0373586272149574  0.8095257635590417  0.3438740751434992
  0.3045516205611500  0.7564110609152044  0.4433748873159492
  0.2311116904722402  0.9373120172453234  0.5671781753834558
  0.2250401067818531  0.8636068204232994  0.3419483040615832
  0.0789794547543583  0.9265949738188748  0.4819523306383435
  0.1252329851840829  0.7280655316590433  0.5356892226009397
  0.0537451128593428  0.8346262904924977  0.6238127338958077
  0.2810297465883961  0.7947400299100753  0.8240807887054549
  0.1914609945399894  0.9169086959781502  0.8901166266412264
  0.2317770024625957  0.8416985039444859  0.6830124444363629
  0.0792931321343398  0.9307842884483803  0.7793370754367198
  0.1028097836858018  0.7022272975003994  0.9053943010453683
  0.4078748597613015  0.1012819476876077  0.9772245399923249
  0.6488990926595015  0.0858261699101341  0.1609027052588154
  0.5445172044254409  0.2280967386359561  0.2030828239841014
  0.6121640154881849  0.2175520819935385  0.9814407071776368
  0.4088801066404814  0.1726027740004077  0.1307323672755441
  0.5141512828997931  0.0427165507469191  0.2634726350487150
  0.3950340430677758  0.1304649629635062  0.3204979215564899
  0.6240591578955189  0.0860969862770243  0.4987849851461867
  0.5457632224997325  0.2448936777045571  0.5249071021956747
  0.5762408735797753  0.1954286045560592  0.3656500562796389
  0.4487323073527646  0.2688696481929890  0.4110928270140418
  0.4542552321662536  0.0590774087627534  0.5700568883878435
  0.4179398262558605  0.1783613058244329  0.6708328673159141
  0.5934025685647424  0.0501274598893539  0.7522278766275767
  0.4804441995387113  0.2519840436400050  0.9013776395664014
  0.6024888715694271  0.1787216270475115  0.6489651238914991
  0.4035110438116408  0.3220186912543491  0.7897422660102714
  0.5276184367927097  0.1010470590552094  0.8617400549422193
  0.3931012422655536  0.4894333879176707  0.0155473016862499
  0.6113930800810582  0.3839876137491244  0.1026044192572611
  0.4696321941346357  0.5498640906719231  0.2013435521826746
  0.5723600794350273  0.5035551027086724  0.0276492873526688
  0.3666798369515541  0.6075165142717542  0.1108130916597884
  0.4891884986725127  0.3819458305809899  0.2232287305288304
  0.3734108665470637  0.4456692630306903  0.3142972654439378
  0.6565223227235258  0.4378775986335580  0.4532363268079984
  0.5330936816092613  0.5800018274074186  0.5403922557252855
  0.5670415040892695  0.5238476631200555  0.3291422993879938
  0.3758570441041949  0.5908972178325960  0.4379310223959105
  0.4605810204349976  0.3816838438045016  0.5376741935221394
  0.4415354368114914  0.4753288211825153  0.6772416374652226
  0.6238823358591397  0.4154046076754911  0.8006115815337890
  0.4759267705346273  0.5608513556877234  0.8767989775365448
  0.5948383190601763  0.4784225071025222  0.6440432066858479
  0.4255889005804722  0.6279960387969483  0.7442407932687062
  0.5209679822607675  0.4328538260150828  0.9037612770635932
  0.3768571297470355  0.8067185351835865  0.9988558185865402
  0.5806959558636363  0.7265697732071658  0.1041186823408448
  0.5294775199209159  0.9043118430704120  0.1900101989134104
  0.5701053695370645  0.8632890757975193  0.9797789499160647
  0.4136665093022832  0.9724769107096676  0.0997709879880034
  0.5125664461613434  0.7556608866339045  0.2441428552953560
  0.3751199656549516  0.8618912673918929  0.2973028812999317
  0.5774755765547261  0.7307190517201378  0.4246683950018638
  0.4843978278182455  0.9035088343962704  0.5675991317764442
  0.5694818856118974  0.8803990018709107  0.3604679383729489
  0.4107654388528825  0.9418749414707059  0.4228568549849079
  0.4595023163907868  0.6907127693173752  0.5663636488298226
  0.3583982242567136  0.7648951275816156  0.6763095821611674
  0.6240888945462280  0.7386116663225484  0.7896396199769740
  0.4735758263797263  0.8734186791505608  0.8541054080351987
  0.5580904875098751  0.7793160441343926  0.6667015556232440
  0.3816180627793831  0.9498075110241241  0.7373566068730796
  0.4318578397351422  0.6935612357472289  0.8890879131220653
  0.7830450751891399  0.1652275657423482  0.0198579350854356
  0.9374102247210221  0.0510795225782738  0.0798403509611003
  0.9032471448605446  0.2933868881399957  0.2440094866290708
  0.9848512494159399  0.2431097810265428  0.9912355430753006
  0.7518966561571325  0.2756362549196831  0.1372727301744663
  0.8390764509145548  0.0748741524914515  0.2347840825890644
  0.7242213455647415  0.1233115176502582  0.3418095247943860
  0.9542537002965922  0.0553138560464230  0.4699871349183272
  0.8161411214591905  0.2357135306368173  0.5247356903892543
  0.9246220052160471  0.1758735625729780  0.3649663047746511
  0.7741446783938121  0.2961302841605931  0.4009764586173633
  0.7861830742041004  0.0404908983300168  0.5643040604127127
  0.7136388792181150  0.1129705061778699  0.6332508170719696
  0.9014013588925289  0.1205434734430535  0.7778175074235164
  0.8653596728447194  0.2834960947447914  0.8802178092749553
  0.9469137869908633  0.2373152840272515  0.6422418962060186
  0.7185462551208174  0.2609692994266293  0.7535377443752596
  0.8576294814501969  0.0803772364937504  0.9231932988125346
  0.7407208548375577  0.4916370580121437  0.9756448325717056
  0.9526167299253281  0.4455518064609615  0.1356171913005405
  0.8817973946309163  0.6236647807911161  0.2223690717928339
  0.9085599603043851  0.5590745488423000  0.0077120271336021
  0.7407754226864128  0.5924920388261785  0.1391709290272509
  0.8242905595584251  0.4425038206850497  0.2479702461264262
  0.7385421768830924  0.5046836891781392  0.3270972068261980
  0.9380626628627597  0.4580257792586162  0.4957455754827629
  0.8120658420710979  0.5598875043497901  0.5419322565448494
  0.9279613210033610  0.5769140265611206  0.3713137284394193
  0.7209356303363209  0.6340016553455197  0.4527809216209462
  0.7524314894279543  0.3573470021343529  0.5580025304351204
  0.7745394480938080  0.4801801198691538  0.7030290180437937
  0.9340347486014744  0.3981040993297196  0.7470727074094372
  0.9277512049791461  0.6254017909466777  0.8495470049141814
  0.9623405694810789  0.5409661370467784  0.6260329513457130
  0.7183924900206672  0.5898499056182440  0.7797015592949448
  0.8199956637877066  0.4118861799043135  0.8628539919572784
  0.7311062895467582  0.8245921419125939  0.9578056836943440
  0.8708762805925468  0.7618055567010397  0.0881756238662019
  0.8764616022047296  0.9235954202234872  0.2015461618583096
  0.9030176536903509  0.8422340769978115  0.9622850030965616
  0.7305161390539143  0.9247739377828832  0.0930912159131494
  0.8285651301106672  0.7389780514807941  0.2845032311546564
  0.7323906160252625  0.8322195022847981  0.3189041608570392
  0.8960565206640341  0.7230784637420221  0.4544455507576808
  0.8747755574773727  0.9314593425329192  0.5765965996006205
  0.9436012277512033  0.9162605828877360  0.3741456398224634
  0.7341576497886807  0.9098440003568502  0.4650218810897631
  0.8130208923084021  0.7387074233814800  0.5879758617632438
  0.7516104378497865  0.8696786969780841  0.6884641758208098
  0.9570421131689801  0.7163542009666292  0.7271586798907234
  0.8457510582754223  0.9382045448977165  0.8454007509922785
  0.9230944098942009  0.8685892654652480  0.7160911431237712
  0.6888259916919167  0.9691200806276103  0.7971665583005987
  0.8408931492916542  0.7394076992079609  0.8532946204548316
  0.1633971463558137  0.9792091282313117  0.1427782941496009
  0.1521260176940412  0.1235067490180549  0.2822420512364352
  0.0148389811061239  0.1832158659277361  0.0485704545977497
  0.1988099400455902  0.0076215926149838  0.5223226573509028
  0.1726503908203628  0.1723618583440237  0.6087146410089107
  0.0194656293856690  0.1604645529591684  0.3827229279072476
  0.1834353971290427  0.9990598826256576  0.8280591578866582
  0.1769681519861583  0.1561294860652654  0.9396433752390850
  0.9999791461853774  0.1906244886080606  0.7298799237294753
  0.1542599276419082  0.2996471981135060  0.1847781285525458
  0.1110958959806837  0.4551091867823975  0.2857348021494655
  0.9821554196326238  0.5238554510169864  0.0473921881849137
  0.1827577490714524  0.3350975435061957  0.4843570147376213
  0.1956045886534919  0.4928226508356493  0.6081572298979864
  0.9924078498660276  0.5146138536559396  0.4035342585542850
  0.1922592919385187  0.3370456928972531  0.8507785322134001
  0.1530299998839279  0.4928694019761058  0.9531501452048426
  0.0204967358515767  0.5083702871658468  0.7123083802761937
  0.1744121044002545  0.6731935811597668  0.1911420785527144
  0.1268537345055616  0.8198797058534487  0.2845191069432436
  0.9693014691761676  0.8254174429542152  0.0381624036187800
  0.2026967958170765  0.6809517159906087  0.4987788890713963
  0.1619222553202124  0.8288792162110817  0.6064453289321627
  0.9846532053498867  0.8464281481811432  0.4256156583816375
  0.1760428953299265  0.6710733755595358  0.8260159622037538
  0.1541205168887602  0.8153170685063389  0.9456610557590993
  0.0143387567849318  0.8418589882075829  0.7258585765684470
  0.5154807693389282  0.9986273368741044  0.1672677036208770
  0.5073241768669861  0.1473599387129110  0.2847047631620727
  0.3294074325710634  0.1022319650791610  0.0478840970626064
  0.5065250030673781  0.0041906083064652  0.5054362175079385
  0.5068146008114633  0.1656659543851370  0.6010218741606113
  0.3493883823835015  0.1642370412034018  0.4054200084499177
  0.4900451700535694  0.9934512936183897  0.7936730603192754
  0.5101394267942865  0.1662751012797622  0.9350413689056745
  0.3377500136738153  0.1977803854827430  0.7321148938387523
  0.5040156341365607  0.3072964030971835  0.1670636939848577
  0.4713628446244030  0.4671153198527980  0.2665123838358188
  0.3129194354398125  0.4816559310814235  0.0830939260405648
  0.5261953235009591  0.3409041634878126  0.4889156166965631
  0.5166425297347281  0.4914720731611911  0.6041168904727942
  0.3189081403717701  0.4948318055234712  0.3852009829974995
  0.4989299603093548  0.3370269563570809  0.8446217401165097
  0.4851102795052151  0.4979282091001333  0.9483134075069679
  0.3691946363123857  0.5044841681779895  0.7153102657762177
  0.4760574898042907  0.6570499681597010  0.1734387138371132
  0.5030017289812618  0.8579746117954076  0.2759964934629921
  0.3353180982551986  0.8528635079709752  0.0558453099350928
  0.4919194557489712  0.6578699470437439  0.4874802570886428
  0.4385555557075924  0.7790137669975966  0.6012968276954973
  0.3115233296119918  0.8510189306157998  0.3822979027093941
  0.5017021177082502  0.6688492603776441  0.8228105594874932
  0.4531285180566902  0.8092437992001079  0.9345356686740278
  0.3112679978629994  0.8323245936496935  0.7308636074589061
  0.8654651972422567  0.0006367008683146  0.1528876957837324
  0.8386065520368948  0.1634944904256311  0.3043695123925217
  0.6977908312052998  0.1715894794432317  0.0794978089266219
  0.8372759305954161  0.9932057231568783  0.5073637804407216
  0.8284224531853434  0.1658857657323546  0.5951979682686726
  0.6727575191049868  0.1830415639338150  0.4165560670364880
  0.8061636015246308  0.0137361849306219  0.8296731332580746
  0.8759632168313586  0.1992086402282570  0.9447042554276696
  0.6695246047073083  0.1604293050809246  0.7022248000640283
  0.8463533869632935  0.3560358587977819  0.2040169777662205
  0.8545250711527241  0.5463629500425320  0.2936003430893996
  0.6689256034945298  0.4900266105962621  0.0592089536020051
  0.8232005942197795  0.3499538838293619  0.4906249515519919
  0.8270717055790636  0.4764635603728581  0.6072103118442375
  0.6577364547181310  0.5263844523454815  0.3831136924093348
  0.8387343434463980  0.3322881981091813  0.8075591109413947
  0.8405524870844368  0.5170960679830509  0.9191843511441943
  0.6669061633207889  0.4848472991678283  0.7261917376555521
  0.8232803806035843  0.6771457303686613  0.1896116683306442
  0.8476582036039915  0.8503050169138979  0.2974241876942297
  0.6694864816565299  0.8404417875824837  0.0385928755609976
  0.8268796882682183  0.6715630411307125  0.5215009492459610
  0.8470227575217119  0.8557361822706708  0.6430768136307099
  0.6641881442631218  0.8646565477891952  0.3857921476786526
  0.8341943789053807  0.6579396627558957  0.8000480882188652
  0.8312842946067860  0.8350141215507577  0.8941529558002349
  0.6425769474650985  0.8303383059780052  0.7241066732585146
 
  0.25589107E-01 -0.15197308E-01  0.17141063E-01
  0.13381683E-01 -0.14734246E-01 -0.72833780E-02
 -0.13738852E-01  0.24039597E-01 -0.22817618E-02
  0.19914769E-01  0.19440281E-01  0.58365381E-02
  0.86629516E-02  0.18474012E-01  0.70396584E-02
  0.88646228E-02 -0.22481969E-01 -0.12822278E-01
  0.95034617E-02 -0.44943357E-02  0.34023956E-01
  0.50672783E-02  0.29015963E-03  0.14217538E-02
  0.18085502E-02 -0.13360878E-01  0.50088010E-02
 -0.93064328E-02  0.89700678E-02  0.10447037E-01
 -0.13171601E-01  0.18713056E-01 -0.68836121E-02
  0.13323395E-01  0.87185440E-02  0.10282931E-01
 -0.33406582E-01  0.15650544E-01 -0.10876908E-02
 -0.97272808E-02 -0.16205026E-01  0.24973236E-02
 -0.10613026E-01 -0.10974182E-01  0.12211045E-01
 -0.62208575E-02 -0.18118780E-03 -0.22264401E-01
  0.22512421E-01  0.35723708E-02 -0.38189549E-02
  0.94544549E-02 -0.19559241E-02  0.94087746E-03
 -0.11270059E-02  0.23166519E-01 -0.28186219E-02
  0.17957622E-01 -0.74965591E-02 -0.23561114E-01
  0.20896496E-01  0.13225939E-03 -0.61794958E-02
 -0.93148938E-02 -0.17940589E-01  0.15544332E-01
  0.17907398E-02  0.56932101E-02 -0.58262200E-02
  0.33203318E-02 -0.27137976E-01 -0.14169754E-01
 -0.38886170E-02 -0.14998821E-01  0.83170304E-02
  0.75730014E-02  0.20940628E-01 -0.12558140E-01
  0.18964791E-01 -0.29870728E-02 -0.10718848E-02
  0.25324736E-02 -0.12160174E-01 -0.15632585E-02
 -0.74338431E-02 -0.94462221E-02 -0.12809156E-01
 -0.33273951E-01  0.69505009E-02  0.12211432E-01
 -0.10569771E-01 -0.84943444E-02 -0.25374153E-01
 -0.54447359E-02 -0.14351985E-01  0.12460334E-01
 -0.58119166E-02  0.37195941E-02  0.67120063E-03
  0.11613163E-02 -0.17790297E-02  0.23554385E-01
 -0.16735300E-01 -0.65214043E-02 -0.68060502E-02
  0.12270085E-01  0.37342832E-03 -0.63858703E-02
  0.11472653E-01  0.38840896E-02 -0.85441299E-02
  0.11091038E-03  0.34695518E-02  0.85994789E-02
  0.94913862E-02 -0.39057614E-02 -0.19857722E-02
 -0.85139097E-02 -0.94439269E-02 -0.29010998E-01
  0.26244432E-01  0.21176897E-01 -0.94526641E-02
  0.69251110E-02 -0.52259661E-02 -0.13214310E-01
 -0.28047794E-01 -0.95063459E-02 -0.13403563E-01
  0.37188379E-02  0.21748619E-01 -0.80466731E-02
  0.72592769E-02  0.42904235E-02  0.15483174E-01
 -0.12770099E-01 -0.64093478E-02  0.15034657E-01
 -0.22732290E-02  0.48582639E-02 -0.29682111E-01
  0.24461717E-01  0.86809799E-02 -0.85856973E-02
  0.20256631E-01  0.15383691E-01 -0.21729616E-01
  0.10886500E-01 -0.10646166E-01  0.73011008E-02
  0.65364616E-02  0.98485000E-02  0.25241271E-01
 -0.58275116E-02 -0.29956920E-01 -0.13123676E-02
 -0.31227664E-02  0.31413262E-02  0.10168602E-02
 -0.12678101E-01  0.47033322E-02  0.21702494E-02
 -0.38002329E-02 -0.19638875E-01 -0.27228512E-02
 -0.36134117E-02 -0.27114680E-01 -0.69950430E-02
 -0.29724467E-01  0.18026141E-01 -0.34719236E-02
 -0.40100884E-02 -0.43055785E-02  0.18772126E-01
 -0.33065409E-01  0.80186144E-02  0.53554789E-02
  0.30781278E-01 -0.16651906E-01  0.80165505E-02
  0.16272796E-02  0.30372663E-01  0.79261514E-02
 -0.96517210E-02  0.51969353E-03 -0.13934731E-01
  0.14318304E-03 -0.52579574E-02  0.38231987E-01
  0.60369410E-02  0.59094273E-02 -0.26097144E-01
 -0.47655622E-02  0.13505184E-01 -0.11654772E-01
 -0.88774777E-02  0.12397658E-01 -0.20370179E-01
 -0.10067673E-01 -0.23720584E-01 -0.59026960E-02
 -0.41137313E-02  0.27997551E-01 -0.23304537E-01
 -0.46309759E-02  0.22783632E-01 -0.98118257E-02
 -0.98922144E-02  0.52007090E-02  0.41814665E-02
 -0.11993455E-01 -0.12469996E-01  0.21382288E-01
 -0.10946367E-01  0.17334163E-03 -0.47919958E-03
 -0.16878835E-01  0.24100310E-02  0.91277045E-02
  0.13012421E-01 -0.15609933E-02 -0.17737578E-01
 -0.38805194E-02 -0.72599598E-02  0.26438391E-01
 -0.13775941E-01  0.23079102E-01 -0.27154603E-01
 -0.58243454E-02 -0.73057871E-02  0.17861454E-01
 -0.11423849E-01 -0.56753643E-02  0.26178470E-02
 -0.78150464E-02  0.22505141E-01 -0.15444907E-01
  0.91063310E-02  0.68146883E-02  0.11792736E-01
  0.18989456E-01  0.25095647E-01 -0.31741345E-02
 -0.16812989E-01 -0.67961169E-02  0.26003735E-01
 -0.13486102E-02 -0.90237208E-02 -0.31131476E-01
  0.11449019E-01  0.64915482E-02 -0.11899605E-02
 -0.10868880E-02 -0.86779481E-02 -0.11842446E-01
 -0.13892063E-01 -0.10613792E-01 -0.11285410E-01
  0.14119822E-02  0.62033441E-02  0.17420227E-02
 -0.61025156E-02  0.11695140E-02 -0.24695040E-01
  0.18234962E-01  0.27696173E-02  0.30976178E-02
  0.15860666E-01 -0.31024698E-02 -0.84231130E-02
  0.26692100E-02 -0.15506205E-02  0.10477918E-01
 -0.60693910E-02  0.66191617E-02 -0.31763297E-01
  0.34250311E-02  0.75702326E-02  0.22725018E-02
  0.49347581E-02  0.86147908E-02 -0.79752726E-02
  0.74191016E-03 -0.16657560E-01  0.16983652E-01
  0.12837661E-01 -0.17676728E-01 -0.17217622E-01
  0.12103460E-03 -0.35209941E-02  0.11642124E-01
 -0.11486986E-01 -0.11339192E-02 -0.17249921E-02
  0.49258520E-02 -0.21605343E-01 -0.25383659E-02
 -0.86965075E-02  0.28030382E-01  0.46867340E-02
  0.13012228E-01  0.24023222E-03  0.97737864E-02
 -0.17370577E-02 -0.12973632E-01 -0.14164612E-01
 -0.41634558E-02 -0.97921999E-02  0.36848913E-02
  0.14792645E-01  0.62992583E-02 -0.28880599E-02
 -0.10869729E-02  0.26783413E-02 -0.12436628E-01
  0.11476957E-01 -0.11471758E-01 -0.52619334E-02
  0.21198848E-01  0.25658108E-02  0.10110489E-01
  0.85359364E-02 -0.24512258E-01 -0.75943324E-03
  0.12912086E-01 -0.18857037E-01  0.10724363E-01
  0.24463259E-01 -0.78304629E-02 -0.14099734E-01
  0.15118432E-02  0.10035556E-01 -0.78762394E-02
 -0.15760088E-01  0.12586722E-01 -0.39944235E-02
  0.14267806E-01  0.44432352E-02 -0.82191729E-02
  0.31151662E-02  0.86578232E-02 -0.18649624E-02
 -0.70546554E-02  0.58730042E-02 -0.35632298E-03
 -0.53026771E-02 -0.11798927E-01 -0.13868431E-01
 -0.32053475E-01  0.59782723E-02  0.27005029E-02
  0.89405328E-02  0.90764804E-03 -0.34644129E-01
  0.41792122E-01 -0.20390033E-01 -0.47866230E-02
  0.90937237E-03  0.56086566E-02  0.10368751E-01
 -0.78837708E-02  0.32594534E-01 -0.11922975E-01
  0.53932677E-02 -0.52393611E-02  0.13137356E-01
 -0.81273850E-02 -0.82174586E-02 -0.17106862E-01
 -0.17790697E-01 -0.56789923E-02  0.18343818E-01
  0.10021726E-01  0.11208269E-01 -0.52468146E-02
 -0.28885873E-02 -0.18664187E-01 -0.30319029E-01
 -0.41462388E-02  0.27051567E-01 -0.26284128E-02
 -0.18337623E-01 -0.10245252E-01  0.12762057E-01
  0.45296778E-02 -0.19053176E-02 -0.31062886E-01
 -0.51139239E-02  0.12551664E-01 -0.72457733E-02
 -0.44882711E-02 -0.53508681E-02 -0.24732716E-01
 -0.21087611E-01 -0.34222380E-02  0.28781792E-01
  0.77738120E-02 -0.17401552E-02  0.24130412E-01
 -0.14459593E-02  0.94706040E-02 -0.10309689E-01
 -0.11838715E-01  0.16864999E-01 -0.50513920E-03
  0.39417558E-02  0.16216736E-01  0.28041892E-01
 -0.21162077E-01 -0.25110501E-02  0.19199847E-01
 -0.22082534E-01  0.14450667E-01 -0.97754319E-02
 -0.13677114E-01 -0.13065634E-01  0.34772108E-02
  0.29428721E-02  0.20577660E-03 -0.23454281E-01
  0.20805524E-01  0.59271675E-02 -0.31263380E-01
  0.21645454E-01 -0.23429878E-01 -0.10839234E-01
  0.34093998E-02 -0.11414773E-01 -0.42907737E-02
  0.15740719E-01  0.74475243E-02 -0.13569922E-01
  0.14116433E-02  0.14966231E-02 -0.18076822E-01
 -0.13206092E-01  0.12729378E-01 -0.16475551E-01
  0.14271629E-01 -0.28885789E-02  0.11126257E-01
  0.49219421E-02  0.75458944E-02  0.12225667E-01
  0.16287675E-01 -0.21128588E-01 -0.50162595E-02
 -0.45294158E-02  0.83273686E-02 -0.29105589E-01
  0.84262339E-02  0.14271974E-01 -0.12263367E-01
  0.97524610E-02 -0.34561018E-02 -0.37227977E-01
 -0.80254394E-02  0.15408507E-02 -0.21565534E-01
 -0.45215740E-02  0.49899590E-02  0.38031832E-02
 -0.10991814E-01 -0.96602587E-02 -0.52432584E-02
 -0.10008979E-01  0.11898232E-01 -0.16291261E-01
  0.41629467E-02  0.47663544E-02  0.13769752E-01
 -0.24255322E-01 -0.10270773E-01  0.67732316E-03
 -0.18000993E-01 -0.25678571E-01  0.34356699E-01
  0.25078403E-02  0.94713283E-02 -0.10328603E-01
 -0.20029716E-01 -0.44597972E-02  0.11162694E-01
  0.22228195E-01  0.21624670E-01  0.94376977E-02
 -0.14288933E-01 -0.10329837E-01  0.23108013E-01
 -0.77075861E-02 -0.45304069E-03  0.10037845E-01
 -0.75665811E-02 -0.29480849E-02  0.50210769E-03
  0.27950170E-01 -0.33753428E-02  0.18014284E-02
 -0.70657687E-02  0.87521978E-02  0.10246957E-01
 -0.57999211E-02  0.11811927E-01 -0.32314145E-03
 -0.11396532E-02  0.24711343E-01 -0.14413663E-01
 -0.26245130E-01  0.11561301E-01  0.15300520E-01
 -0.99142798E-02  0.20987008E-02  0.33120488E-02
 -0.12722768E-02 -0.11178492E-01 -0.59528504E-03
  0.11994276E-01 -0.34538306E-02 -0.31980199E-02
  0.16177489E-01  0.17118575E-02  0.16058350E-02
 -0.34690068E-02  0.12315523E-03 -0.15762277E-01
  0.12887362E-01  0.25114673E-01 -0.60575594E-02
 -0.95061898E-02 -0.11493362E-02  0.48479794E-02
 -0.61615248E-03  0.11103068E-01 -0.89631892E-02
  0.73954416E-02  0.32037585E-02  0.15643533E-01
  0.96093787E-03 -0.39208058E-02 -0.45377898E-02
 -0.95552093E-02 -0.73240417E-02  0.11882060E-01
 -0.83135180E-02  0.85957101E-02  0.12243511E-01
  0.86701938E-02  0.22762148E-02  0.96437979E-02
  0.37676496E-02 -0.35313557E-02  0.15584538E-01
 -0.52487335E-02  0.74936902E-02 -0.10532405E-01
 -0.25226214E-02 -0.83946061E-02  0.14825100E-01
  0.13080944E-01  0.76122285E-02  0.12794549E-01
 -0.55378751E-02  0.14392295E-02  0.50987015E-02
 -0.10127567E-01 -0.20843869E-01  0.13760174E-02
 -0.15719295E-01 -0.86875228E-02  0.58936529E-03
  0.14559170E-01  0.13825702E-01 -0.54054675E-03
 -0.93573192E-02 -0.10587914E-01  0.89333845E-02
  0.23699336E-01  0.12921599E-01  0.16951407E-01
 -0.15788622E-01 -0.18107526E-01  0.11109437E-01
  0.60570443E-02  0.44498370E-02 -0.74457214E-02
  0.10709058E-01 -0.13033044E-01  0.64516766E-03
 -0.52044204E-02  0.10704261E-01  0.38682663E-02
  0.24878619E-02  0.96831508E-03 -0.95783396E-03
 -0.11355149E-01 -0.11180883E-01 -0.16969883E-01
  0.18106728E-01 -0.11524424E-01  0.19724600E-01
 -0.21320334E-01 -0.19388645E-02  0.19770101E-01
 -0.21746835E-01 -0.77134169E-02  0.93917045E-02
  0.40417728E-03 -0.12169985E-01 -0.67220013E-02
 -0.11542775E-01  0.42719787E-02 -0.11583421E-01
  0.70587621E-02 -0.11332424E-01  0.14920324E-01
  0.42989996E-02  0.85841873E-02 -0.12029318E-01
  0.10594313E-01  0.22630104E-01  0.18997508E-01
 -0.15110804E-01  0.10221228E-01 -0.38611107E-02
  0.82614044E-02  0.12639714E-01  0.52145296E-02
  0.42026566E-02  0.51763070E-02  0.14415660E-01
 -0.13713333E-01 -0.22759655E-02  0.30708947E-02
 -0.12579603E-01  0.89693473E-02 -0.14062817E-01
 -0.13097261E-02 -0.18908621E-01  0.13920524E-01
  0.76987255E-02 -0.12680615E-01 -0.13257009E-01
 -0.22627566E-02  0.67786320E-03  0.94746191E-03
  0.81000975E-02  0.55021579E-02  0.13708567E-01
 -0.20020584E-01  0.66497421E-03 -0.22427455E-02
  0.11231212E-01  0.38572051E-02 -0.23355497E-01
  0.42764182E-02 -0.66298588E-02  0.65865403E-02
 -0.77720767E-02 -0.18326316E-01  0.57994282E-02
  0.56453947E-02 -0.78404708E-02 -0.58442446E-02
  0.93322951E-02 -0.44378182E-02 -0.37093777E-02
  0.12573381E-01  0.24496011E-02  0.83648197E-02
  0.12437307E-01 -0.27833870E-01  0.45736288E-02
 -0.20372644E-01  0.15503792E-01  0.10127946E-01
  0.39961797E-02  0.60510149E-02 -0.12623640E-01
  0.15719532E-01 -0.35685185E-02  0.12274753E-01
 -0.68224308E-02  0.94811547E-02 -0.11768624E-01
  0.66090981E-02  0.76709093E-02  0.40888133E-02
  0.19879716E-02 -0.10953702E-01  0.49481076E-02
  0.92141216E-03  0.40728825E-02  0.16158772E-01
  0.47984960E-02 -0.28503987E-02  0.10869388E-01
  0.21530261E-01 -0.13859894E-01 -0.15332054E-01
  0.17765532E-01  0.68248662E-02 -0.79684697E-02
  0.18032506E-01 -0.68705008E-02  0.44578928E-02
 -0.79668881E-02  0.12927030E-01 -0.66907085E-02
 -0.97993759E-02  0.10894880E-01 -0.34889612E-03
 -0.13431573E-01  0.87816746E-02  0.65939810E-02
  0.49836760E-02 -0.21754165E-01  0.10475713E-01
  0.49910066E-02 -0.94387153E-02 -0.39922012E-02
 -0.79550509E-02  0.53686072E-02  0.29029017E-01
 -0.89837575E-02 -0.33411797E-02 -0.10883819E-01
  0.17334459E-01 -0.20550074E-01  0.11091774E-02
 
           1
  0.500000000000000     
  0.10291796E+01 -0.31429573E-02 -0.67485570E-17  0.00000000E+00
  0.86496498E-01  0.17332114E+00  0.98112134E+00
  0.25628830E+00  0.97978255E+00  0.76264026E-01
  0.18409519E+00  0.22797898E+00  0.24152734E+00
  0.29861503E+00  0.18569781E+00  0.14364805E-01
  0.37728910E-01  0.23549452E+00  0.13629731E+00
  0.15980880E+00  0.68391231E-01  0.19684574E+00
  0.44932690E-01  0.90157162E-01  0.33762623E+00
  0.30827899E+00  0.80350681E-01  0.47977703E+00
  0.17108488E+00  0.22254279E+00  0.52654686E+00
  0.22930050E+00  0.15221162E+00  0.37850662E+00
  0.11071551E+00  0.27668083E+00  0.40769542E+00
  0.16957766E+00  0.85158426E-01  0.55639935E+00
  0.87772846E-01  0.19261227E+00  0.66388082E+00
  0.30986395E+00  0.96570482E-01  0.79844834E+00
  0.23027657E+00  0.27012582E+00  0.89853877E+00
  0.27070110E+00  0.22564469E+00  0.65655014E+00
  0.88464090E-01  0.28116365E+00  0.78777554E+00
  0.12634731E+00  0.65020958E-01  0.87331454E+00
  0.14049404E-01  0.44235924E+00  0.98728766E+00
  0.23309045E+00  0.36755459E+00  0.10127053E+00
  0.15511222E+00  0.56200365E+00  0.21473509E+00
  0.21220451E+00  0.52384845E+00  0.33944239E-01
  0.76942570E-01  0.61432314E+00  0.10881650E+00
  0.11611030E+00  0.36201037E+00  0.25033974E+00
  0.80282656E-02  0.45055553E+00  0.31336108E+00
  0.29915315E+00  0.41610741E+00  0.44528617E+00
  0.21287748E+00  0.60647821E+00  0.54512487E+00
  0.21995991E+00  0.50427650E+00  0.37177790E+00
  0.11528698E+00  0.61656778E+00  0.40942201E+00
  0.11887021E+00  0.38266349E+00  0.54441072E+00
  0.12208794E+00  0.49977155E+00  0.68968614E+00
  0.26600038E+00  0.40466109E+00  0.77444159E+00
  0.23223318E+00  0.60220646E+00  0.87817662E+00
  0.29573539E+00  0.56216794E+00  0.66977125E+00
  0.85834192E-01  0.61404475E+00  0.75529364E+00
  0.15669591E+00  0.40216629E+00  0.90929373E+00
  0.46561457E-01  0.80408459E+00  0.98165881E+00
  0.28266401E+00  0.78926610E+00  0.16643451E+00
  0.13414137E+00  0.85191417E+00  0.17650265E+00
  0.26598278E+00  0.85634276E+00  0.98811186E+00
  0.47078230E-01  0.93752624E+00  0.10129014E+00
  0.10735483E+00  0.70746810E+00  0.26217392E+00
  0.36240125E-01  0.80915966E+00  0.34346471E+00
  0.30509444E+00  0.75724863E+00  0.44312913E+00
  0.23143642E+00  0.93747725E+00  0.56765105E+00
  0.22449078E+00  0.86335999E+00  0.34240748E+00
  0.78997188E-01  0.92678207E+00  0.48104580E+00
  0.12621599E+00  0.72839985E+00  0.53542700E+00
  0.54716937E-01  0.83521874E+00  0.62314908E+00
  0.28118783E+00  0.79433003E+00  0.82430377E+00
  0.19186864E+00  0.91728798E+00  0.89088753E+00
  0.23100580E+00  0.84054482E+00  0.68297236E+00
  0.79249470E-01  0.93090527E+00  0.77936813E+00
  0.10247751E+00  0.70240843E+00  0.90546058E+00
  0.40736995E+00  0.10052562E+00  0.97714138E+00
  0.64825646E+00  0.84781941E-01  0.16068907E+00
  0.54387294E+00  0.22879095E+00  0.20297679E+00
  0.61194736E+00  0.21738627E+00  0.98201403E+00