(Si O2)81  (P1) ~ Ciellie_MCM41 (MD #12)
   1.00000000000000     
    14.9919002999999993    0.0000000000000000    0.0000000000000000
    -7.4959498299999998   12.9833666900000004    0.0000000000000000
     0.0000003000000000    0.0000005200000000   16.3716003000000008
   O    Si
   162    81
Direct
  0.0692166700000030  0.1384333399999989  0.0000000000000000
  0.2641166599999991  0.0692166700000030  0.1111111100000031
  0.1948999900000032  0.2641166599999991  0.2222222199999990
  0.2641166599999991  0.1948999900000032  0.0000000000000000
  0.0692166700000030  0.2641166599999991  0.1111111100000031
  0.1384333399999989  0.0692166700000030  0.2222222199999990
  0.0692166700000030  0.1384333399999989  0.3333333300000021
  0.2641166599999991  0.0692166700000030  0.4444444399999981
  0.1948999900000032  0.2641166599999991  0.5555555600000019
  0.2641166599999991  0.1948999900000032  0.3333333300000021
  0.0692166700000030  0.2641166599999991  0.4444444399999981
  0.1384333399999989  0.0692166700000030  0.5555555600000019
  0.0692166700000030  0.1384333399999989  0.6666666699999979
  0.2641166599999991  0.0692166700000030  0.7777777800000010
  0.1948999900000032  0.2641166599999991  0.8888888899999969
  0.2641166599999991  0.1948999900000032  0.6666666699999979
  0.0692166700000030  0.2641166599999991  0.7777777800000010
  0.1384333399999989  0.0692166700000030  0.8888888899999969
  0.0692166700000030  0.4717666700000009  0.0000000000000000
  0.2641166599999991  0.4025499999999980  0.1111111100000031
  0.1948999900000032  0.5974500000000020  0.2222222199999990
  0.2641166599999991  0.5282333299999991  0.0000000000000000
  0.0692166700000030  0.5974500000000020  0.1111111100000031
  0.1384333399999989  0.4025499999999980  0.2222222199999990
  0.0692166700000030  0.4717666700000009  0.3333333300000021
  0.2641166599999991  0.4025499999999980  0.4444444399999981
  0.1948999900000032  0.5974500000000020  0.5555555600000019
  0.2641166599999991  0.5282333299999991  0.3333333300000021
  0.0692166700000030  0.5974500000000020  0.4444444399999981
  0.1384333399999989  0.4025499999999980  0.5555555600000019
  0.0692166700000030  0.4717666700000009  0.6666666699999979
  0.2641166599999991  0.4025499999999980  0.7777777800000010
  0.1948999900000032  0.5974500000000020  0.8888888899999969
  0.2641166599999991  0.5282333299999991  0.6666666699999979
  0.0692166700000030  0.5974500000000020  0.7777777800000010
  0.1384333399999989  0.4025499999999980  0.8888888899999969
  0.0692166700000030  0.8051000099999968  0.0000000000000000
  0.2641166599999991  0.7358833400000009  0.1111111100000031
  0.1948999900000032  0.9307833299999970  0.2222222199999990
  0.2641166599999991  0.8615666600000011  0.0000000000000000
  0.0692166700000030  0.9307833299999970  0.1111111100000031
  0.1384333399999989  0.7358833400000009  0.2222222199999990
  0.0692166700000030  0.8051000099999968  0.3333333300000021
  0.2641166599999991  0.7358833400000009  0.4444444399999981
  0.1948999900000032  0.9307833299999970  0.5555555600000019
  0.2641166599999991  0.8615666600000011  0.3333333300000021
  0.0692166700000030  0.9307833299999970  0.4444444399999981
  0.1384333399999989  0.7358833400000009  0.5555555600000019
  0.0692166700000030  0.8051000099999968  0.6666666699999979
  0.2641166599999991  0.7358833400000009  0.7777777800000010
  0.1948999900000032  0.9307833299999970  0.8888888899999969
  0.2641166599999991  0.8615666600000011  0.6666666699999979
  0.0692166700000030  0.9307833299999970  0.7777777800000010
  0.1384333399999989  0.7358833400000009  0.8888888899999969
  0.4025499999999980  0.1384333399999989  0.0000000000000000
  0.5974500000000020  0.0692166700000030  0.1111111100000031
  0.5282333299999991  0.2641166599999991  0.2222222199999990
  0.5974500000000020  0.1948999900000032  0.0000000000000000
  0.4025499999999980  0.2641166599999991  0.1111111100000031
  0.4717666700000009  0.0692166700000030  0.2222222199999990
  0.4025499999999980  0.1384333399999989  0.3333333300000021
  0.5974500000000020  0.0692166700000030  0.4444444399999981
  0.5282333299999991  0.2641166599999991  0.5555555600000019
  0.5974500000000020  0.1948999900000032  0.3333333300000021
  0.4025499999999980  0.2641166599999991  0.4444444399999981
  0.4717666700000009  0.0692166700000030  0.5555555600000019
  0.4025499999999980  0.1384333399999989  0.6666666699999979
  0.5974500000000020  0.0692166700000030  0.7777777800000010
  0.5282333299999991  0.2641166599999991  0.8888888899999969
  0.5974500000000020  0.1948999900000032  0.6666666699999979
  0.4025499999999980  0.2641166599999991  0.7777777800000010
  0.4717666700000009  0.0692166700000030  0.8888888899999969
  0.4025499999999980  0.4717666700000009  0.0000000000000000
  0.5974500000000020  0.4025499999999980  0.1111111100000031
  0.5282333299999991  0.5974500000000020  0.2222222199999990
  0.5974500000000020  0.5282333299999991  0.0000000000000000
  0.4025499999999980  0.5974500000000020  0.1111111100000031
  0.4717666700000009  0.4025499999999980  0.2222222199999990
  0.4025499999999980  0.4717666700000009  0.3333333300000021
  0.5974500000000020  0.4025499999999980  0.4444444399999981
  0.5282333299999991  0.5974500000000020  0.5555555600000019
  0.5974500000000020  0.5282333299999991  0.3333333300000021
  0.4025499999999980  0.5974500000000020  0.4444444399999981
  0.4717666700000009  0.4025499999999980  0.5555555600000019
  0.4025499999999980  0.4717666700000009  0.6666666699999979
  0.5974500000000020  0.4025499999999980  0.7777777800000010
  0.5282333299999991  0.5974500000000020  0.8888888899999969
  0.5974500000000020  0.5282333299999991  0.6666666699999979
  0.4025499999999980  0.5974500000000020  0.7777777800000010
  0.4717666700000009  0.4025499999999980  0.8888888899999969
  0.4025499999999980  0.8051000099999968  0.0000000000000000
  0.5974500000000020  0.7358833400000009  0.1111111100000031
  0.5282333299999991  0.9307833299999970  0.2222222199999990
  0.5974500000000020  0.8615666600000011  0.0000000000000000
  0.4025499999999980  0.9307833299999970  0.1111111100000031
  0.4717666700000009  0.7358833400000009  0.2222222199999990
  0.4025499999999980  0.8051000099999968  0.3333333300000021
  0.5974500000000020  0.7358833400000009  0.4444444399999981
  0.5282333299999991  0.9307833299999970  0.5555555600000019
  0.5974500000000020  0.8615666600000011  0.3333333300000021
  0.4025499999999980  0.9307833299999970  0.4444444399999981
  0.4717666700000009  0.7358833400000009  0.5555555600000019
  0.4025499999999980  0.8051000099999968  0.6666666699999979
  0.5974500000000020  0.7358833400000009  0.7777777800000010
  0.5282333299999991  0.9307833299999970  0.8888888899999969
  0.5974500000000020  0.8615666600000011  0.6666666699999979
  0.4025499999999980  0.9307833299999970  0.7777777800000010
  0.4717666700000009  0.7358833400000009  0.8888888899999969
  0.7358833400000009  0.1384333399999989  0.0000000000000000
  0.9307833299999970  0.0692166700000030  0.1111111100000031
  0.8615666600000011  0.2641166599999991  0.2222222199999990
  0.9307833299999970  0.1948999900000032  0.0000000000000000
  0.7358833400000009  0.2641166599999991  0.1111111100000031
  0.8051000099999968  0.0692166700000030  0.2222222199999990
  0.7358833400000009  0.1384333399999989  0.3333333300000021
  0.9307833299999970  0.0692166700000030  0.4444444399999981
  0.8615666600000011  0.2641166599999991  0.5555555600000019
  0.9307833299999970  0.1948999900000032  0.3333333300000021
  0.7358833400000009  0.2641166599999991  0.4444444399999981
  0.8051000099999968  0.0692166700000030  0.5555555600000019
  0.7358833400000009  0.1384333399999989  0.6666666699999979
  0.9307833299999970  0.0692166700000030  0.7777777800000010
  0.8615666600000011  0.2641166599999991  0.8888888899999969
  0.9307833299999970  0.1948999900000032  0.6666666699999979
  0.7358833400000009  0.2641166599999991  0.7777777800000010
  0.8051000099999968  0.0692166700000030  0.8888888899999969
  0.7358833400000009  0.4717666700000009  0.0000000000000000
  0.9307833299999970  0.4025499999999980  0.1111111100000031
  0.8615666600000011  0.5974500000000020  0.2222222199999990
  0.9307833299999970  0.5282333299999991  0.0000000000000000
  0.7358833400000009  0.5974500000000020  0.1111111100000031
  0.8051000099999968  0.4025499999999980  0.2222222199999990
  0.7358833400000009  0.4717666700000009  0.3333333300000021
  0.9307833299999970  0.4025499999999980  0.4444444399999981
  0.8615666600000011  0.5974500000000020  0.5555555600000019
  0.9307833299999970  0.5282333299999991  0.3333333300000021
  0.7358833400000009  0.5974500000000020  0.4444444399999981
  0.8051000099999968  0.4025499999999980  0.5555555600000019
  0.7358833400000009  0.4717666700000009  0.6666666699999979
  0.9307833299999970  0.4025499999999980  0.7777777800000010
  0.8615666600000011  0.5974500000000020  0.8888888899999969
  0.9307833299999970  0.5282333299999991  0.6666666699999979
  0.7358833400000009  0.5974500000000020  0.7777777800000010
  0.8051000099999968  0.4025499999999980  0.8888888899999969
  0.7358833400000009  0.8051000099999968  0.0000000000000000
  0.9307833299999970  0.7358833400000009  0.1111111100000031
  0.8615666600000011  0.9307833299999970  0.2222222199999990
  0.9307833299999970  0.8615666600000011  0.0000000000000000
  0.7358833400000009  0.9307833299999970  0.1111111100000031
  0.8051000099999968  0.7358833400000009  0.2222222199999990
  0.7358833400000009  0.8051000099999968  0.3333333300000021
  0.9307833299999970  0.7358833400000009  0.4444444399999981
  0.8615666600000011  0.9307833299999970  0.5555555600000019
  0.9307833299999970  0.8615666600000011  0.3333333300000021
  0.7358833400000009  0.9307833299999970  0.4444444399999981
  0.8051000099999968  0.7358833400000009  0.5555555600000019
  0.7358833400000009  0.8051000099999968  0.6666666699999979
  0.9307833299999970  0.7358833400000009  0.7777777800000010
  0.8615666600000011  0.9307833299999970  0.8888888899999969
  0.9307833299999970  0.8615666600000011  0.6666666699999979
  0.7358833400000009  0.9307833299999970  0.7777777800000010
  0.8051000099999968  0.7358833400000009  0.8888888899999969
  0.1666666699999979  0.0000000000000000  0.1666666699999979
  0.1666666699999979  0.1666666699999979  0.2777777800000010
  0.0000000000000000  0.1666666699999979  0.0555555600000019
  0.1666666699999979  0.0000000000000000  0.5000000000000000
  0.1666666699999979  0.1666666699999979  0.6111111100000031
  0.0000000000000000  0.1666666699999979  0.3888888899999969
  0.1666666699999979  0.0000000000000000  0.8333333300000021
  0.1666666699999979  0.1666666699999979  0.9444444399999981
  0.0000000000000000  0.1666666699999979  0.7222222199999990
  0.1666666699999979  0.3333333300000021  0.1666666699999979
  0.1666666699999979  0.5000000000000000  0.2777777800000010
  0.0000000000000000  0.5000000000000000  0.0555555600000019
  0.1666666699999979  0.3333333300000021  0.5000000000000000
  0.1666666699999979  0.5000000000000000  0.6111111100000031
  0.0000000000000000  0.5000000000000000  0.3888888899999969
  0.1666666699999979  0.3333333300000021  0.8333333300000021
  0.1666666699999979  0.5000000000000000  0.9444444399999981
  0.0000000000000000  0.5000000000000000  0.7222222199999990
  0.1666666699999979  0.6666666699999979  0.1666666699999979
  0.1666666699999979  0.8333333300000021  0.2777777800000010
  0.0000000000000000  0.8333333300000021  0.0555555600000019
  0.1666666699999979  0.6666666699999979  0.5000000000000000
  0.1666666699999979  0.8333333300000021  0.6111111100000031
  0.0000000000000000  0.8333333300000021  0.3888888899999969
  0.1666666699999979  0.6666666699999979  0.8333333300000021
  0.1666666699999979  0.8333333300000021  0.9444444399999981
  0.0000000000000000  0.8333333300000021  0.7222222199999990
  0.5000000000000000  0.0000000000000000  0.1666666699999979
  0.5000000000000000  0.1666666699999979  0.2777777800000010
  0.3333333300000021  0.1666666699999979  0.0555555600000019
  0.5000000000000000  0.0000000000000000  0.5000000000000000
  0.5000000000000000  0.1666666699999979  0.6111111100000031
  0.3333333300000021  0.1666666699999979  0.3888888899999969
  0.5000000000000000  0.0000000000000000  0.8333333300000021
  0.5000000000000000  0.1666666699999979  0.9444444399999981
  0.3333333300000021  0.1666666699999979  0.7222222199999990
  0.5000000000000000  0.3333333300000021  0.1666666699999979
  0.5000000000000000  0.5000000000000000  0.2777777800000010
  0.3333333300000021  0.5000000000000000  0.0555555600000019
  0.5000000000000000  0.3333333300000021  0.5000000000000000
  0.5000000000000000  0.5000000000000000  0.6111111100000031
  0.3333333300000021  0.5000000000000000  0.3888888899999969
  0.5000000000000000  0.3333333300000021  0.8333333300000021
  0.5000000000000000  0.5000000000000000  0.9444444399999981
  0.3333333300000021  0.5000000000000000  0.7222222199999990
  0.5000000000000000  0.6666666699999979  0.1666666699999979
  0.5000000000000000  0.8333333300000021  0.2777777800000010
  0.3333333300000021  0.8333333300000021  0.0555555600000019
  0.5000000000000000  0.6666666699999979  0.5000000000000000
  0.5000000000000000  0.8333333300000021  0.6111111100000031
  0.3333333300000021  0.8333333300000021  0.3888888899999969
  0.5000000000000000  0.6666666699999979  0.8333333300000021
  0.5000000000000000  0.8333333300000021  0.9444444399999981
  0.3333333300000021  0.8333333300000021  0.7222222199999990
  0.8333333300000021  0.0000000000000000  0.1666666699999979
  0.8333333300000021  0.1666666699999979  0.2777777800000010
  0.6666666699999979  0.1666666699999979  0.0555555600000019
  0.8333333300000021  0.0000000000000000  0.5000000000000000
  0.8333333300000021  0.1666666699999979  0.6111111100000031
  0.6666666699999979  0.1666666699999979  0.3888888899999969
  0.8333333300000021  0.0000000000000000  0.8333333300000021
  0.8333333300000021  0.1666666699999979  0.9444444399999981
  0.6666666699999979  0.1666666699999979  0.7222222199999990
  0.8333333300000021  0.3333333300000021  0.1666666699999979
  0.8333333300000021  0.5000000000000000  0.2777777800000010
  0.6666666699999979  0.5000000000000000  0.0555555600000019
  0.8333333300000021  0.3333333300000021  0.5000000000000000
  0.8333333300000021  0.5000000000000000  0.6111111100000031
  0.6666666699999979  0.5000000000000000  0.3888888899999969
  0.8333333300000021  0.3333333300000021  0.8333333300000021
  0.8333333300000021  0.5000000000000000  0.9444444399999981
  0.6666666699999979  0.5000000000000000  0.7222222199999990
  0.8333333300000021  0.6666666699999979  0.1666666699999979
  0.8333333300000021  0.8333333300000021  0.2777777800000010
  0.6666666699999979  0.8333333300000021  0.0555555600000019
  0.8333333300000021  0.6666666699999979  0.5000000000000000
  0.8333333300000021  0.8333333300000021  0.6111111100000031
  0.6666666699999979  0.8333333300000021  0.3888888899999969
  0.8333333300000021  0.6666666699999979  0.8333333300000021
  0.8333333300000021  0.8333333300000021  0.9444444399999981
  0.6666666699999979  0.8333333300000021  0.7222222199999990
 
  0.00000000E+00  0.00000000E+00  0.00000000E+00
  0.00000000E+00  0.00000000E+00  0.00000000E+00
  0.00000000E+00  0.00000000E+00  0.00000000E+00
  0.00000000E+00  0.00000000E+00  0.00000000E+00
  0.00000000E+00  0.00000000E+00  0.00000000E+00
  0.00000000E+00  0.00000000E+00  0.00000000E+00
  0.00000000E+00  0.00000000E+00  0.00000000E+00
  0.00000000E+00  0.00000000E+00  0.00000000E+00
  0.00000000E+00  0.00000000E+00  0.00000000E+00
  0.00000000E+00  0.00000000E+00  0.00000000E+00
  0.00000000E+00  0.00000000E+00  0.00000000E+00
  0.00000000E+00  0.00000000E+00  0.00000000E+00
  0.00000000E+00  0.00000000E+00  0.00000000E+00
  0.00000000E+00  0.00000000E+00  0.00000000E+00
  0.00000000E+00  0.00000000E+00  0.00000000E+00
  0.00000000E+00  0.00000000E+00  0.00000000E+00
  0.00000000E+00  0.00000000E+00  0.00000000E+00
  0.00000000E+00  0.00000000E+00  0.00000000E+00
  0.00000000E+00  0.00000000E+00  0.00000000E+00
  0.00000000E+00  0.00000000E+00  0.00000000E+00
  0.00000000E+00  0.00000000E+00  0.00000000E+00
  0.00000000E+00  0.00000000E+00  0.00000000E+00
  0.00000000E+00  0.00000000E+00  0.00000000E+00
  0.00000000E+00  0.00000000E+00  0.00000000E+00
  0.00000000E+00  0.00000000E+00  0.00000000E+00
  0.00000000E+00  0.00000000E+00  0.00000000E+00
  0.00000000E+00  0.00000000E+00  0.00000000E+00
  0.00000000E+00  0.00000000E+00  0.00000000E+00
  0.00000000E+00  0.00000000E+00  0.00000000E+00
  0.00000000E+00  0.00000000E+00  0.00000000E+00
  0.00000000E+00  0.00000000E+00  0.00000000E+00
  0.00000000E+00  0.00000000E+00  0.00000000E+00
  0.00000000E+00  0.00000000E+00  0.00000000E+00
  0.00000000E+00  0.00000000E+00  0.00000000E+00
  0.00000000E+00  0.00000000E+00  0.00000000E+00
  0.00000000E+00  0.00000000E+00  0.00000000E+00
  0.00000000E+00  0.00000000E+00  0.00000000E+00
  0.00000000E+00  0.00000000E+00  0.00000000E+00
  0.00000000E+00  0.00000000E+00  0.00000000E+00
  0.00000000E+00  0.00000000E+00  0.00000000E+00
  0.00000000E+00  0.00000000E+00  0.00000000E+00
  0.00000000E+00  0.00000000E+00  0.00000000E+00
  0.00000000E+00  0.00000000E+00  0.00000000E+00
  0.00000000E+00  0.00000000E+00  0.00000000E+00
  0.00000000E+00  0.00000000E+00  0.00000000E+00
  0.00000000E+00  0.00000000E+00  0.00000000E+00
  0.00000000E+00  0.00000000E+00  0.00000000E+00
  0.00000000E+00  0.00000000E+00  0.00000000E+00
  0.00000000E+00  0.00000000E+00  0.00000000E+00
  0.00000000E+00  0.00000000E+00  0.00000000E+00
  0.00000000E+00  0.00000000E+00  0.00000000E+00
  0.00000000E+00  0.00000000E+00  0.00000000E+00
  0.00000000E+00  0.00000000E+00  0.00000000E+00
  0.00000000E+00  0.00000000E+00  0.00000000E+00
  0.00000000E+00  0.00000000E+00  0.00000000E+00
  0.00000000E+00  0.00000000E+00  0.00000000E+00
  0.00000000E+00  0.00000000E+00  0.00000000E+00
  0.00000000E+00  0.00000000E+00  0.00000000E+00
  0.00000000E+00  0.00000000E+00  0.00000000E+00
  0.00000000E+00  0.00000000E+00  0.00000000E+00
  0.00000000E+00  0.00000000E+00  0.00000000E+00
  0.00000000E+00  0.00000000E+00  0.00000000E+00
  0.00000000E+00  0.00000000E+00  0.00000000E+00
  0.00000000E+00  0.00000000E+00  0.00000000E+00
  0.00000000E+00  0.00000000E+00  0.00000000E+00
  0.00000000E+00  0.00000000E+00  0.00000000E+00
  0.00000000E+00  0.00000000E+00  0.00000000E+00
  0.00000000E+00  0.00000000E+00  0.00000000E+00
  0.00000000E+00  0.00000000E+00  0.00000000E+00
  0.00000000E+00  0.00000000E+00  0.00000000E+00
  0.00000000E+00  0.00000000E+00  0.00000000E+00
  0.00000000E+00  0.00000000E+00  0.00000000E+00
  0.00000000E+00  0.00000000E+00  0.00000000E+00
  0.00000000E+00  0.00000000E+00  0.00000000E+00
  0.00000000E+00  0.00000000E+00  0.00000000E+00
  0.00000000E+00  0.00000000E+00  0.00000000E+00
  0.00000000E+00  0.00000000E+00  0.00000000E+00
  0.00000000E+00  0.00000000E+00  0.00000000E+00
  0.00000000E+00  0.00000000E+00  0.00000000E+00
  0.00000000E+00  0.00000000E+00  0.00000000E+00
  0.00000000E+00  0.00000000E+00  0.00000000E+00
  0.00000000E+00  0.00000000E+00  0.00000000E+00
  0.00000000E+00  0.00000000E+00  0.00000000E+00
  0.00000000E+00  0.00000000E+00  0.00000000E+00
  0.00000000E+00  0.00000000E+00  0.00000000E+00
  0.00000000E+00  0.00000000E+00  0.00000000E+00
  0.00000000E+00  0.00000000E+00  0.00000000E+00
  0.00000000E+00  0.00000000E+00  0.00000000E+00
  0.00000000E+00  0.00000000E+00  0.00000000E+00
  0.00000000E+00  0.00000000E+00  0.00000000E+00
  0.00000000E+00  0.00000000E+00  0.00000000E+00
  0.00000000E+00  0.00000000E+00  0.00000000E+00
  0.00000000E+00  0.00000000E+00  0.00000000E+00
  0.00000000E+00  0.00000000E+00  0.00000000E+00
  0.00000000E+00  0.00000000E+00  0.00000000E+00
  0.00000000E+00  0.00000000E+00  0.00000000E+00
  0.00000000E+00  0.00000000E+00  0.00000000E+00
  0.00000000E+00  0.00000000E+00  0.00000000E+00
  0.00000000E+00  0.00000000E+00  0.00000000E+00
  0.00000000E+00  0.00000000E+00  0.00000000E+00
  0.00000000E+00  0.00000000E+00  0.00000000E+00
  0.00000000E+00  0.00000000E+00  0.00000000E+00
  0.00000000E+00  0.00000000E+00  0.00000000E+00
  0.00000000E+00  0.00000000E+00  0.00000000E+00
  0.00000000E+00  0.00000000E+00  0.00000000E+00
  0.00000000E+00  0.00000000E+00  0.00000000E+00
  0.00000000E+00  0.00000000E+00  0.00000000E+00
  0.00000000E+00  0.00000000E+00  0.00000000E+00
  0.00000000E+00  0.00000000E+00  0.00000000E+00
  0.00000000E+00  0.00000000E+00  0.00000000E+00
  0.00000000E+00  0.00000000E+00  0.00000000E+00
  0.00000000E+00  0.00000000E+00  0.00000000E+00
  0.00000000E+00  0.00000000E+00  0.00000000E+00
  0.00000000E+00  0.00000000E+00  0.00000000E+00
  0.00000000E+00  0.00000000E+00  0.00000000E+00
  0.00000000E+00  0.00000000E+00  0.00000000E+00
  0.00000000E+00  0.00000000E+00  0.00000000E+00
  0.00000000E+00  0.00000000E+00  0.00000000E+00
  0.00000000E+00  0.00000000E+00  0.00000000E+00
  0.00000000E+00  0.00000000E+00  0.00000000E+00
  0.00000000E+00  0.00000000E+00  0.00000000E+00
  0.00000000E+00  0.00000000E+00  0.00000000E+00
  0.00000000E+00  0.00000000E+00  0.00000000E+00
  0.00000000E+00  0.00000000E+00  0.00000000E+00
  0.00000000E+00  0.00000000E+00  0.00000000E+00
  0.00000000E+00  0.00000000E+00  0.00000000E+00
  0.00000000E+00  0.00000000E+00  0.00000000E+00
  0.00000000E+00  0.00000000E+00  0.00000000E+00
  0.00000000E+00  0.00000000E+00  0.00000000E+00
  0.00000000E+00  0.00000000E+00  0.00000000E+00
  0.00000000E+00  0.00000000E+00  0.00000000E+00
  0.00000000E+00  0.00000000E+00  0.00000000E+00
  0.00000000E+00  0.00000000E+00  0.00000000E+00
  0.00000000E+00  0.00000000E+00  0.00000000E+00
  0.00000000E+00  0.00000000E+00  0.00000000E+00
  0.00000000E+00  0.00000000E+00  0.00000000E+00
  0.00000000E+00  0.00000000E+00  0.00000000E+00
  0.00000000E+00  0.00000000E+00  0.00000000E+00
  0.00000000E+00  0.00000000E+00  0.00000000E+00
  0.00000000E+00  0.00000000E+00  0.00000000E+00
  0.00000000E+00  0.00000000E+00  0.00000000E+00
  0.00000000E+00  0.00000000E+00  0.00000000E+00
  0.00000000E+00  0.00000000E+00  0.00000000E+00
  0.00000000E+00  0.00000000E+00  0.00000000E+00
  0.00000000E+00  0.00000000E+00  0.00000000E+00
  0.00000000E+00  0.00000000E+00  0.00000000E+00
  0.00000000E+00  0.00000000E+00  0.00000000E+00
  0.00000000E+00  0.00000000E+00  0.00000000E+00
  0.00000000E+00  0.00000000E+00  0.00000000E+00
  0.00000000E+00  0.00000000E+00  0.00000000E+00
  0.00000000E+00  0.00000000E+00  0.00000000E+00
  0.00000000E+00  0.00000000E+00  0.00000000E+00
  0.00000000E+00  0.00000000E+00  0.00000000E+00
  0.00000000E+00  0.00000000E+00  0.00000000E+00
  0.00000000E+00  0.00000000E+00  0.00000000E+00
  0.00000000E+00  0.00000000E+00  0.00000000E+00
  0.00000000E+00  0.00000000E+00  0.00000000E+00
  0.00000000E+00  0.00000000E+00  0.00000000E+00
  0.00000000E+00  0.00000000E+00  0.00000000E+00
  0.00000000E+00  0.00000000E+00  0.00000000E+00
  0.00000000E+00  0.00000000E+00  0.00000000E+00
  0.00000000E+00  0.00000000E+00  0.00000000E+00
  0.00000000E+00  0.00000000E+00  0.00000000E+00
  0.00000000E+00  0.00000000E+00  0.00000000E+00
  0.00000000E+00  0.00000000E+00  0.00000000E+00
  0.00000000E+00  0.00000000E+00  0.00000000E+00
  0.00000000E+00  0.00000000E+00  0.00000000E+00
  0.00000000E+00  0.00000000E+00  0.00000000E+00
  0.00000000E+00  0.00000000E+00  0.00000000E+00
  0.00000000E+00  0.00000000E+00  0.00000000E+00
  0.00000000E+00  0.00000000E+00  0.00000000E+00
  0.00000000E+00  0.00000000E+00  0.00000000E+00
  0.00000000E+00  0.00000000E+00  0.00000000E+00
  0.00000000E+00  0.00000000E+00  0.00000000E+00
  0.00000000E+00  0.00000000E+00  0.00000000E+00
  0.00000000E+00  0.00000000E+00  0.00000000E+00
  0.00000000E+00  0.00000000E+00  0.00000000E+00
  0.00000000E+00  0.00000000E+00  0.00000000E+00
  0.00000000E+00  0.00000000E+00  0.00000000E+00
  0.00000000E+00  0.00000000E+00  0.00000000E+00
  0.00000000E+00  0.00000000E+00  0.00000000E+00
  0.00000000E+00  0.00000000E+00  0.00000000E+00
  0.00000000E+00  0.00000000E+00  0.00000000E+00
  0.00000000E+00  0.00000000E+00  0.00000000E+00
  0.00000000E+00  0.00000000E+00  0.00000000E+00
  0.00000000E+00  0.00000000E+00  0.00000000E+00
  0.00000000E+00  0.00000000E+00  0.00000000E+00
  0.00000000E+00  0.00000000E+00  0.00000000E+00
  0.00000000E+00  0.00000000E+00  0.00000000E+00
  0.00000000E+00  0.00000000E+00  0.00000000E+00
  0.00000000E+00  0.00000000E+00  0.00000000E+00
  0.00000000E+00  0.00000000E+00  0.00000000E+00
  0.00000000E+00  0.00000000E+00  0.00000000E+00
  0.00000000E+00  0.00000000E+00  0.00000000E+00
  0.00000000E+00  0.00000000E+00  0.00000000E+00
  0.00000000E+00  0.00000000E+00  0.00000000E+00
  0.00000000E+00  0.00000000E+00  0.00000000E+00
  0.00000000E+00  0.00000000E+00  0.00000000E+00
  0.00000000E+00  0.00000000E+00  0.00000000E+00
  0.00000000E+00  0.00000000E+00  0.00000000E+00
  0.00000000E+00  0.00000000E+00  0.00000000E+00
  0.00000000E+00  0.00000000E+00  0.00000000E+00
  0.00000000E+00  0.00000000E+00  0.00000000E+00
  0.00000000E+00  0.00000000E+00  0.00000000E+00
  0.00000000E+00  0.00000000E+00  0.00000000E+00
  0.00000000E+00  0.00000000E+00  0.00000000E+00
  0.00000000E+00  0.00000000E+00  0.00000000E+00
  0.00000000E+00  0.00000000E+00  0.00000000E+00
  0.00000000E+00  0.00000000E+00  0.00000000E+00
  0.00000000E+00  0.00000000E+00  0.00000000E+00
  0.00000000E+00  0.00000000E+00  0.00000000E+00
  0.00000000E+00  0.00000000E+00  0.00000000E+00
  0.00000000E+00  0.00000000E+00  0.00000000E+00
  0.00000000E+00  0.00000000E+00  0.00000000E+00
  0.00000000E+00  0.00000000E+00  0.00000000E+00
  0.00000000E+00  0.00000000E+00  0.00000000E+00
  0.00000000E+00  0.00000000E+00  0.00000000E+00
  0.00000000E+00  0.00000000E+00  0.00000000E+00
  0.00000000E+00  0.00000000E+00  0.00000000E+00
  0.00000000E+00  0.00000000E+00  0.00000000E+00
  0.00000000E+00  0.00000000E+00  0.00000000E+00
  0.00000000E+00  0.00000000E+00  0.00000000E+00
  0.00000000E+00  0.00000000E+00  0.00000000E+00
  0.00000000E+00  0.00000000E+00  0.00000000E+00
  0.00000000E+00  0.00000000E+00  0.00000000E+00
  0.00000000E+00  0.00000000E+00  0.00000000E+00
  0.00000000E+00  0.00000000E+00  0.00000000E+00
  0.00000000E+00  0.00000000E+00  0.00000000E+00
  0.00000000E+00  0.00000000E+00  0.00000000E+00
  0.00000000E+00  0.00000000E+00  0.00000000E+00
  0.00000000E+00  0.00000000E+00  0.00000000E+00
  0.00000000E+00  0.00000000E+00  0.00000000E+00
  0.00000000E+00  0.00000000E+00  0.00000000E+00
  0.00000000E+00  0.00000000E+00  0.00000000E+00
  0.00000000E+00  0.00000000E+00  0.00000000E+00
  0.00000000E+00  0.00000000E+00  0.00000000E+00
  0.00000000E+00  0.00000000E+00  0.00000000E+00
  0.00000000E+00  0.00000000E+00  0.00000000E+00
  0.00000000E+00  0.00000000E+00  0.00000000E+00
  0.00000000E+00  0.00000000E+00  0.00000000E+00
  0.00000000E+00  0.00000000E+00  0.00000000E+00
  0.00000000E+00  0.00000000E+00  0.00000000E+00
  0.00000000E+00  0.00000000E+00  0.00000000E+00
