(Si O2)81  (P1) ~ 3x3x3Supersel (VASP)  
   1.00000000000000     
    14.9916000000000000    0.0000000000000000    0.0000000000000000
    -7.4957993700000003   12.9831068100000007    0.0000000000000000
     0.0000006000000000    0.0000010400000000   16.3712997000000016
   O    Si
   162    81
Direct
  0.0411763426144078  0.1609347137388190  0.9626315690820259
  0.2882603249044008  0.0466810127559318  0.1265811945198897
  0.1994617750324978  0.2867876671577693  0.2536606529876572
  0.2212169636391855  0.1673070470749535  0.0398403473235428
  0.0588780502793098  0.2201729565861653  0.1257490688208497
  0.2048144729104792  0.0951946995522905  0.2546230209649822
  0.0611338676389320  0.1160491613042262  0.3495686376092125
  0.2984311108613615  0.0734799228678878  0.4456795733389309
  0.1937965582194006  0.2757950334690398  0.5600421822596826
  0.2585652620469845  0.2268244470540431  0.3773002771910371
  0.0785731425383452  0.2610645808968764  0.4319866367897721
  0.1253674914343755  0.0838796624487123  0.5288252681954373
  0.0491063121476481  0.1342953926854345  0.6678001971369394
  0.2958649850889311  0.1043436104672702  0.7815096401465064
  0.2296610582979002  0.2984030044036662  0.9313313026441634
  0.2229856942970391  0.1793385239816483  0.6863759059970539
  0.1275558570589389  0.2542250478001581  0.7848403686573517
  0.1593656026189274  0.0935323664871108  0.8863691775374627
  0.0776457880691078  0.4827173774292927  0.0030024429068948
  0.2742262568663731  0.3991587927355562  0.1286819719155622
  0.2012323498676147  0.5982656784925552  0.2126549316122968
  0.2854536949422926  0.5584289473712131  0.0025897495833642
  0.0910317905952471  0.6509911224384159  0.1221609947746681
  0.1046820388186965  0.3825905927276516  0.2079296616999761
  0.0705397489606103  0.4467128670486288  0.3328284918477420
  0.2696063549015497  0.4411360007129354  0.4558842157951823
  0.1921011795771855  0.5800174046120007  0.5303692114059007
  0.2738017823382707  0.5212662346964827  0.3089581784796886
  0.0671215138140967  0.5976408747743851  0.4196219951217425
  0.1326414727456777  0.3960757367178744  0.5356316661627927
  0.0573894342390704  0.4452482098835034  0.6516195544407403
  0.2567478065161927  0.4034237958584456  0.8012793537758013
  0.1935142710593410  0.5815499535809118  0.8703767092301412
  0.2258973941156104  0.4648719448624325  0.6839046950952369
  0.0424604569961060  0.5520899468565833  0.7884612886711700
  0.1155657724713927  0.3922785704704526  0.9011026235303927
  0.0871954865518474  0.8079675805136805  0.0133445481998663
  0.2928906033059189  0.7740606985584650  0.1169693150444985
  0.1580796825446081  0.8780757790541220  0.2011993545200808
  0.2895631930457742  0.8522219967691108  0.9716626782525283
  0.0704184691435563  0.9393251574214893  0.1314205993603643
  0.2022424462517359  0.7684479698851382  0.2630490065637290
  0.0835273021122805  0.8213464507443401  0.3680319995135143
  0.2527470941751473  0.7396760817875299  0.4053740427953850
  0.2218490811476003  0.9627562987279644  0.6085785895033639
  0.2852458161143403  0.9104247648381202  0.3435191419411064
  0.0880588982034529  0.9523142442001353  0.4575112730046745
  0.1202648543160941  0.7150083147982311  0.5409453748367870
  0.0407190245806506  0.8119004335012068  0.6215202405698160
  0.2727292767994888  0.7433746602786394  0.7914849505896083
  0.1512457490541055  0.9130599398586290  0.8755620921803621
  0.1757678314224271  0.8016141527841910  0.7074289537552182
  0.0937190694277147  0.9771897843438800  0.7410025537585491
  0.1130317149671550  0.7178354661224181  0.8718444799262660
  0.3624818313480649  0.1156014798661633  0.9822111613842111
  0.6035231759735417  0.1345897424076056  0.1201577887714067
  0.5427435722015559  0.3052900488655308  0.2370053539686113
  0.5740628604050417  0.1957410366559942  0.9697666938340941
  0.4070614796890137  0.2510832054864426  0.1015210423475802
  0.4336906116965756  0.0716510375978624  0.2249885119362789
  0.4491037876074843  0.1650942050400966  0.3554032128598262
  0.6023855266685285  0.1076882663902680  0.4414561859666185
  0.5732572927682460  0.3194290543548382  0.5295998719241624
  0.6334495954094013  0.1848618147464623  0.3112475558191894
  0.3823440577745104  0.2525213193676286  0.4702757883230216
  0.4622942157671347  0.0920063939890505  0.5749790596494908
  0.4345022764784023  0.2291829414861296  0.6668688417511169
  0.5885649577344130  0.0475081579604642  0.7240196960898441
  0.4608474824206351  0.2259843077702649  0.8410132719023440
  0.6062437115118319  0.2208554359827496  0.6549748685549505
  0.3629922090194254  0.3117730123740408  0.7911988240151978
  0.5005755608371230  0.0848836732222518  0.8513920053447511
  0.4339660559118530  0.4984052331780112  0.0535906242939343
  0.5744929005414923  0.4085852697774837  0.1054012726662590
  0.4922846270834426  0.6170943570972872  0.2380558573735525
  0.5846871448748017  0.5342469834401423  0.0002555974648849
  0.4255266822345061  0.6576676887628394  0.1064646407387845
  0.4361607288319186  0.3810856356843271  0.2253503430864260
  0.3892817069826682  0.4590844782192778  0.3259318922874966
  0.5549332411924921  0.4541722703685194  0.4615196273831094
  0.4718479579446119  0.5762618322032231  0.5517851513822140
  0.6079061938011240  0.5670920954932270  0.3277703666706800
  0.4574728750728129  0.6172577832975601  0.4042324771399597
  0.4146948571996323  0.3865409919021975  0.5602370482783707
  0.4259983378037114  0.4940461145547790  0.7110724808114915
  0.5549906479645639  0.4150401216698337  0.7890080445893505
  0.4722610574720584  0.5403164751538149  0.8878466187930092
  0.5755857008791651  0.4993140542877588  0.6434945406564347
  0.3593202089126846  0.5941051531593200  0.8111365236101179
  0.4656205968062248  0.3779279356758789  0.9307408425399125
  0.4760633079596031  0.8921770338143269  0.0084810734383486
  0.6292439201981437  0.7444772767664729  0.1259930028208236
  0.5358770224369492  0.9760142053937381  0.2472938717293668
  0.6136384464545329  0.8488044718626346  0.0062223231733481
  0.4225187389529886  0.9833282646843786  0.0912159202366911
  0.5024797238897522  0.7897340437084579  0.2043692010647883
  0.4077626908553126  0.7991546824369368  0.3364670986317607
  0.6050362798269409  0.7557841976783291  0.4774076804539100
  0.5219806259413585  0.9557268482228445  0.5719913713688192
  0.6005163343822458  0.8624175112221690  0.3437244460156132
  0.4441796971951780  0.9477969955233365  0.4282292189743929
  0.4553974000426134  0.7398259567038931  0.5567049675875804
  0.3525127977193081  0.7999227950882684  0.6219733558381612
  0.5901864504864013  0.7338839839915491  0.8091086148436064
  0.5400596631203669  0.9184284033892722  0.8508852107917911
  0.5429342642816698  0.8408932841414621  0.6818223709800698
  0.4001081678191170  0.9359435562118820  0.7647887439276619
  0.4612399348178887  0.7177368108527014  0.9244205374040249
  0.7236228661273308  0.1462754311598299  0.9935833617264950
  0.8978453655006600  0.0433657260145333  0.0775354414212450
  0.8249432986602618  0.2263495910181314  0.1899160886311762
  0.9265828619873924  0.2090107872850041  0.9759984053905548
  0.7342061479424802  0.3052878379923789  0.0763355359538473
  0.8238922775230632  0.0394817055489189  0.1948769412202466
  0.7227539193874742  0.0864016533112614  0.3130880624116970
  0.9450710898864263  0.0845654371464610  0.4641371256206314
  0.9282815573835488  0.2993159185478243  0.5441923055095597
  0.9168741814259490  0.1557152798881927  0.3202138892044973
  0.7964889759172776  0.2301199300298923  0.4248219236458078
  0.8322316075004912  0.0877292935035169  0.5781310575850958
  0.7629111257961562  0.1801173087332092  0.6302835083608400
  0.9428016902792690  0.0740859619830625  0.7964732939619346
  0.8009529900486918  0.2281883408925199  0.8779116605235758
  0.9505548513359279  0.2201897248685538  0.7080143503317684
  0.7259783311147437  0.2545003703987229  0.7533410620668399
  0.7986701796533483  0.0437924989621179  0.9015002384561139
  0.7729126481327034  0.5094888931634535  0.9985133077051341
  0.9096379065448800  0.4005758722341546  0.1203359538297931
  0.8338872906058856  0.5557236777017470  0.2059362436804770
  0.9658282922675406  0.5795427974087162  0.9787489803651939
  0.7366896517518698  0.5904767746956443  0.1199736065612434
  0.7797271613648958  0.3740812590269805  0.2323114081342257
  0.7245862976891567  0.4800848113668405  0.3329849925519928
  0.9428754355337509  0.4125072394690026  0.4352304694506295
  0.8647231195844738  0.5637157178104206  0.5636820593699280
  0.9379724547055900  0.5214915966229892  0.3154123067508922
  0.7356301956673250  0.5860068556150182  0.4666111279217820
  0.7861798054900753  0.3540368243808165  0.5339840924180702
  0.6848795182997814  0.4085763343658256  0.6672073772819013
  0.9367727861438371  0.3720440213231552  0.7656046804002173
  0.8595734835750883  0.5610379176192374  0.8346782131553709
  0.8943396930747181  0.5086726578439700  0.6776363909913955
  0.7434936208307876  0.5929719477890202  0.7441780444660724
  0.8479763063768023  0.4148181478686669  0.8680962468199224
  0.7071207240059301  0.7173611894851132  0.9688380825897280
  0.9146101187755783  0.7454985911740830  0.1273293323977135
  0.8783816230454580  0.9245755050446083  0.2589256202445878
  0.9173318332252691  0.8379238255925209  0.9992385386534859
  0.7889568296152433  0.8809162557339064  0.1001798421170791
  0.8023385269708651  0.7100181255996643  0.2565472513559925
  0.7379657107401741  0.8027666903807512  0.3555391354178175
  0.9384512111314954  0.6882766213235847  0.4485758124450869
  0.8708517401226329  0.9159059687970349  0.5797844293411568
  0.9116362681112608  0.8330419962109582  0.3901688379950746
  0.7787226299886396  0.9701970096921845  0.4433907535207587
  0.8334510127904279  0.7365482864676103  0.5704384663332078
  0.7359657638446842  0.8140339911089205  0.6756986782121923
  0.9524613190693769  0.7316845841376828  0.7664463443658935
  0.8534937746340480  0.8830309605293012  0.8776921044380191
  0.9052094957087086  0.8493683112190316  0.7068796029588732
  0.7265555927593930  0.8986123390153867  0.7935751436461886
  0.7999174031217248  0.7124460610267368  0.8421967528139590
  0.1768230778907348  0.0008223033591452  0.1905302411304498
  0.1749310736431675  0.1753767298928718  0.3030331738778448
  0.9781392666387526  0.1592526663742244  0.0509994883526236
  0.1850165999418174  0.0088491248854530  0.5201516482361399
  0.1559117321718141  0.1666901350580116  0.6089112552499865
  0.9946030685574483  0.1537051439640014  0.3917419109591174
  0.1737404628128119  0.0073327611460597  0.8168278413107455
  0.1677902075748617  0.1892124971433889  0.9623629953792586
  0.0202538169735902  0.1719447099695572  0.7494794039945839
  0.1617970852271073  0.3229125458188741  0.1734305707809795
  0.1613510971378013  0.4952091781281985  0.2573050429702675
  0.9940561521488795  0.5140880809391214  0.0588683219905659
  0.1846354109628249  0.3398445864703635  0.4885888961897367
  0.1599889317286803  0.4784416654456549  0.5964199723861882
  0.0076806854374744  0.4890832667327791  0.3660316305048038
  0.1747188341538250  0.3185760222607666  0.8618174476942877
  0.1765841559612709  0.4971948953575832  0.9406160261291471
  0.9811800146038897  0.4733805700178750  0.7159700955841614
  0.1846650389676094  0.6979314234943421  0.1800235523585565
  0.1763339165376402  0.8517386695202324  0.2937784979761741
  0.0004123222637085  0.8322628150242177  0.0697529773905655
  0.1716607210797504  0.6674847825337753  0.4841467890401454
  0.1466275348251661  0.8106639002241434  0.6122865934220860
  0.0061244633309427  0.8267475983839307  0.4235870171285723
  0.1565285866435110  0.6485633577183209  0.8159214582355243
  0.1670973614008495  0.8154361334333246  0.9269438411652343
  0.0052801170883469  0.8378637349535671  0.7042693502109593
  0.5167453962242847  0.0425169474585189  0.1786788319028095
  0.5101904973975041  0.1711534501764835  0.2716910980436636
  0.3207642739352781  0.1402060079035153  0.0695015416793694
  0.5158821924624089  0.0450667064218618  0.5003463796789260
  0.5271318555285313  0.2329507481651079  0.5993127556557197
  0.3579191150277685  0.1752144686717260  0.3965316014034534
  0.5079480159318688  0.9950030085988840  0.8092217755141984
  0.4570665533277010  0.1485433962794870  0.9226506212248844
  0.3422187916710395  0.2151181723252189  0.7340019817813855
  0.4861574805627306  0.3267610092199763  0.1678582520818688
  0.4832556514993177  0.4974845548649046  0.2751080220171744
  0.3454477948656646  0.5382913111883471  0.0693778303589861
  0.4700801494257407  0.3510573676074745  0.5021451547655608
  0.4729482080587272  0.4893380934240381  0.6166619377272388
  0.3459779313297358  0.5229482489208088  0.3695885531836801
  0.4655590500703476  0.3376891041649914  0.8388389312306568
  0.4756084790720835  0.4763567023315434  0.9619905614447336
  0.3166348510731364  0.5024901555702956  0.7437106194760970
  0.5263373855145778  0.7085513548111317  0.1648206266886051
  0.5206122356945689  0.8614384624656999  0.2855887377680990
  0.3759133988321386  0.8752656228877511  0.0509109400501799
  0.4832440506797166  0.6690164566295687  0.5013785144704512
  0.4817064546968625  0.8356932501144740  0.6097103753767377
  0.3454011108024302  0.8477659132100230  0.3691446180399507
  0.4674929009644356  0.6568166451918579  0.8497140495349208
  0.5361912080795715  0.8539649318374978  0.9401458368137472
  0.3054931363599687  0.8172435022278099  0.7046924470001533
  0.8441408323364605  0.9575526459341326  0.1617557039916211
  0.8314066321512652  0.1335532845692051  0.2495241974276698
  0.6666664812615476  0.2010076785878804  0.0370517458524178
  0.8540641555100860  0.9996845142661055  0.5206025338440345
  0.8906913873533145  0.2073722007367990  0.6256179083507302
  0.6987832922725424  0.1503349566565753  0.3671905163035877
  0.8343328505104907  0.9688881473975466  0.8458557027936274
  0.8215697968029434  0.1561393178052949  0.9332723088069313
  0.6715106926771354  0.1668806632318663  0.6897666816138258
  0.8066901398652238  0.3192110558476247  0.1574172359708965
  0.8264398346534345  0.4850731129137791  0.2697306080821976
  0.6706349974316507  0.4936426586000489  0.0536915803861324
  0.8547121032145500  0.3172036800050979  0.4788123687521891
  0.8067487149284421  0.4547473609374281  0.6192159346421363
  0.6541809301738365  0.5104846142717060  0.3933192811306035
  0.8171449247617734  0.3134722258684327  0.8060472375880295
  0.8584587810191902  0.5118852947246405  0.9177968127751958
  0.6312362647198269  0.4915593743604889  0.7159759961631375
  0.8336345309878644  0.6559594278967766  0.1756456766788714
  0.8375403202865394  0.8124376251068636  0.3139359516322746
  0.6911714722687903  0.8057977641409273  0.0468004406369485
  0.8366735433142056  0.6426220513967807  0.5223828642306304
  0.8367884860319826  0.8264308300282387  0.6324907344904001
  0.6723694400261867  0.8441016860147879  0.4060680675621942
  0.8535102773841481  0.6611576937424019  0.7986569619089533
  0.8360802034898266  0.7863050725322031  0.9313735717242299
  0.6217220063010630  0.8146145178137334  0.7297153557898260
 
 -0.19390415E-01 -0.56863109E-02 -0.67661884E-02
 -0.25959471E-01 -0.39583161E-01  0.13931770E-01
  0.16965943E-01  0.12699835E-02 -0.87984516E-02
 -0.14396171E-01  0.18143979E-01 -0.15193291E-01
 -0.68398941E-02  0.15906954E-01  0.12844966E-01
 -0.99159753E-02  0.67151531E-03  0.11916056E-01
 -0.12168787E-01  0.13368396E-01 -0.60008264E-02
 -0.70271980E-02  0.28585426E-01 -0.79780873E-02
 -0.17864581E-01  0.87727548E-03 -0.11143215E-01
  0.14478980E-01 -0.46743631E-02  0.28403810E-01
 -0.43021010E-02 -0.26183277E-03 -0.33149448E-01
 -0.13518610E-01  0.68826771E-02 -0.18804566E-01
  0.58965835E-02 -0.18291647E-01  0.10051488E-01
 -0.87746152E-02  0.10316953E-01 -0.88320281E-02
  0.13159736E-01  0.12430080E-01  0.69871201E-02
 -0.35746979E-02  0.17330053E-01  0.43020679E-02
  0.96440295E-02 -0.15978876E-01  0.34355965E-01
 -0.73007233E-03 -0.59382787E-02 -0.13530949E-01
  0.35723965E-02 -0.67049969E-02  0.12420592E-01
  0.25774109E-01 -0.13423869E-01 -0.11809605E-01
  0.22188698E-02 -0.34724703E-02 -0.15214280E-01
 -0.16641222E-02  0.11654726E-03  0.44019350E-02
  0.96735487E-02 -0.87004547E-02  0.96159708E-02
 -0.55969767E-02  0.11722783E-01  0.14686384E-02
  0.19079882E-01 -0.14306110E-01 -0.25461820E-01
  0.36007302E-02  0.50435225E-02  0.19983543E-01
 -0.11868833E-01  0.50579055E-02 -0.27706610E-02
 -0.44467180E-02  0.28798390E-01 -0.71172106E-03
 -0.15586483E-02  0.68786115E-02  0.19729113E-02
  0.10733268E-01  0.12093527E-01  0.66864751E-02
  0.23056612E-01 -0.19578325E-01 -0.18081181E-01
 -0.11740259E-01  0.17633581E-01  0.58936883E-03
  0.10572213E-02 -0.15786548E-01 -0.38857160E-03
 -0.29413536E-01 -0.11516125E-01  0.18513967E-01
 -0.46866727E-02 -0.50006324E-02  0.10707792E-01
  0.40622376E-01 -0.49942927E-02 -0.12678897E-01
 -0.29116381E-01  0.15563009E-01 -0.19645224E-01
  0.33726600E-02  0.12196555E-02 -0.64945748E-03
 -0.13116635E-01 -0.13405913E-01  0.13185304E-02
 -0.39960766E-02  0.36398023E-02 -0.19998266E-01
 -0.10083687E-01 -0.18370007E-01  0.12040808E-01
  0.20450217E-01 -0.12321457E-01  0.55021666E-02
 -0.42783990E-02 -0.53556310E-01  0.47360542E-02
  0.41116720E-02  0.91728798E-02  0.16715811E-01
 -0.96760625E-02 -0.83193188E-02 -0.30720243E-02
  0.26498596E-02 -0.17132545E-01  0.55067542E-02
  0.42934677E-02 -0.59532119E-02  0.92763837E-02
 -0.30154870E-01  0.15955311E-02  0.34264455E-01
 -0.22158754E-01 -0.28816537E-02 -0.12905549E-01
 -0.83553479E-02 -0.51718115E-02 -0.17355062E-02
 -0.16651149E-02 -0.82865559E-02 -0.10584280E-01
 -0.53308190E-02 -0.25602998E-01 -0.22038981E-01
 -0.30259029E-01  0.23766147E-03 -0.91005182E-02
  0.16455610E-01  0.84235607E-02  0.42746204E-04
  0.49368900E-03  0.92609440E-02 -0.14143458E-01
 -0.16848801E-01  0.41488862E-02 -0.64341284E-03
  0.84353014E-02 -0.18386723E-01  0.27129477E-01
  0.41874037E-02  0.21820992E-01 -0.41343646E-02
 -0.20301008E-01 -0.19122039E-02 -0.10849254E-01
 -0.22290850E-01  0.24603400E-03 -0.48442582E-02
  0.10159307E-01  0.39545577E-02 -0.13953030E-01
  0.37138193E-02 -0.37154199E-02 -0.62415575E-02
 -0.43672921E-01 -0.13421279E-02 -0.21443646E-03
 -0.17225950E-01  0.22261548E-02 -0.18793297E-01
  0.38531016E-01  0.30643231E-03 -0.29817282E-02
  0.43341094E-01  0.42233815E-02  0.50521486E-02
 -0.48402434E-02  0.84617026E-02  0.31922170E-01
 -0.98727613E-03 -0.14236263E-01 -0.37703531E-02
  0.85383694E-02 -0.95604964E-02  0.17348003E-01
  0.79165919E-02 -0.36207413E-02  0.17806699E-01
  0.16208051E-02 -0.15885872E-01 -0.22744618E-01
 -0.11702933E-01  0.26209947E-01 -0.26379914E-02
 -0.13630707E-01 -0.84689147E-02  0.68351214E-03
 -0.11977532E-02  0.69000276E-02 -0.10360466E-01
 -0.29320335E-01 -0.57597528E-03 -0.62010599E-02
  0.80189184E-02  0.50510001E-01  0.26581486E-02
  0.71045896E-02  0.19497761E-01  0.82054229E-03
  0.12812453E-01  0.31056887E-03  0.12010696E-01
  0.19327794E-01  0.23090685E-01 -0.28984749E-01
 -0.14791963E-01  0.11659922E-01  0.20291852E-02
  0.53448904E-02 -0.88171204E-03 -0.97338272E-02
 -0.19069639E-01  0.25327785E-02 -0.79856405E-02
 -0.19742079E-01  0.12617020E-02  0.24708011E-01
 -0.84885603E-02 -0.34202976E-02  0.49889957E-02
 -0.52171575E-03  0.88223358E-02 -0.16713839E-01
  0.42373932E-01  0.14037556E-01  0.12251422E-01
  0.16944414E-03 -0.99732066E-02 -0.44242132E-02
 -0.10515639E-01  0.28567964E-01  0.10518003E-01
 -0.98741169E-02 -0.85682800E-02 -0.24578642E-01
 -0.26281200E-02  0.34007499E-02  0.22837225E-01
 -0.15285597E-01  0.16131148E-01  0.36451980E-01
  0.36464198E-02 -0.26044552E-01 -0.20173178E-01
 -0.88298556E-02 -0.19248178E-01  0.70553285E-03
 -0.42009703E-01  0.23923745E-01  0.11024558E-01
 -0.11787634E-01  0.56271900E-02 -0.28746026E-03
 -0.43767511E-02 -0.42782728E-02 -0.17015872E-01
 -0.19372123E-01 -0.84112391E-02  0.23893670E-01
  0.15469972E-01  0.35163869E-01  0.43987540E-02
  0.12345555E-01  0.70460527E-02 -0.10204085E-01
 -0.24732069E-02  0.16643949E-01 -0.15058873E-01
  0.15707409E-01  0.28702209E-01  0.10245141E-01
 -0.94781767E-03  0.41177059E-02 -0.26462809E-01
  0.50068912E-02 -0.14937625E-01  0.44697812E-02
  0.54409058E-02  0.19603666E-01 -0.95142371E-02
 -0.49482757E-02  0.11205939E-01  0.49555377E-02
  0.19195940E-01 -0.26654837E-01 -0.21584524E-01
  0.18823190E-01 -0.10330455E-01  0.40591072E-02
 -0.10350497E-01 -0.31781894E-02 -0.47471357E-02
 -0.84959860E-02 -0.95656682E-02  0.19826293E-01
 -0.10544602E-02  0.80497845E-03 -0.27547010E-02
 -0.27794406E-02  0.21612199E-02  0.14430332E-01
 -0.54522822E-02  0.15200932E-01  0.13587459E-01
  0.75883488E-02 -0.13873788E-01  0.76420270E-02
 -0.61357225E-03  0.40378432E-02 -0.57793115E-02
 -0.45021539E-02  0.17519757E-01  0.11718675E-01
 -0.18388460E-01 -0.22387498E-02  0.14306726E-01
 -0.23980036E-02  0.16513675E-01  0.17783566E-01
  0.56872243E-03  0.16935343E-02 -0.27213184E-01
  0.68399680E-02 -0.22758630E-01 -0.11015228E-01
  0.18427315E-01  0.39230189E-02 -0.26901072E-01
  0.15208734E-01 -0.19137782E-01 -0.33397347E-02
  0.47917621E-03 -0.34256493E-01  0.10030461E-01
 -0.26473491E-02 -0.36224525E-02 -0.13204683E-01
  0.42325529E-02 -0.10541924E-01 -0.23415725E-01
 -0.84550817E-02 -0.87460748E-02 -0.13456676E-01
 -0.14415296E-01  0.15793355E-01  0.49455048E-03
  0.80616384E-02 -0.62454030E-02 -0.18312418E-01
  0.19959003E-02 -0.18574764E-02  0.17551244E-01
 -0.19095193E-01 -0.10572836E-01 -0.64943598E-02
  0.54079820E-02  0.16192789E-01 -0.10531411E-01
  0.15963419E-01  0.12391323E-01  0.65193211E-02
  0.95013297E-02 -0.12307169E-02  0.24875686E-01
 -0.90421792E-02  0.34262492E-02 -0.15525304E-01
 -0.64607532E-02 -0.11998987E-01  0.10170064E-02
 -0.26193875E-01  0.25601013E-01  0.46040571E-02
  0.19827978E-02  0.39289944E-01  0.62159839E-02
 -0.22161462E-01  0.48427678E-02 -0.12874436E-02
 -0.22879991E-01  0.89375664E-02  0.16882233E-02
  0.24347573E-01 -0.78976331E-02  0.73886356E-03
 -0.46150607E-02  0.29406991E-01 -0.22197409E-02
 -0.11198155E-01  0.24583623E-01 -0.12748717E-01
  0.39494292E-02 -0.15088952E-01 -0.30295951E-03
  0.15170188E-01 -0.13392858E-01  0.95809111E-02
  0.14352883E-01 -0.62170214E-03  0.43406206E-02
 -0.16235420E-01  0.42030068E-02  0.21257889E-01
  0.10611170E-01  0.80463117E-02  0.13853026E-02
  0.26280876E-01  0.39532400E-01  0.44262326E-03
 -0.12713268E-01 -0.60240289E-02  0.16346509E-01
  0.66085990E-02 -0.27330391E-01  0.23163264E-01
 -0.32388352E-02 -0.22362864E-01 -0.13786227E-01
 -0.30170334E-02 -0.95965640E-02  0.22362548E-01
 -0.83066233E-02  0.25825566E-01 -0.16661638E-01
 -0.68616270E-02 -0.23886666E-01 -0.42731341E-02
 -0.60262848E-02  0.35042059E-02 -0.12810842E-01
 -0.31299740E-01  0.25802946E-01  0.10729271E-01
 -0.41290234E-02 -0.27279461E-01 -0.71553489E-02
 -0.66999876E-02 -0.82775431E-02 -0.12684973E-01
  0.17740080E-01 -0.58903779E-02 -0.99571905E-02
  0.77819495E-02  0.24882090E-01  0.19804476E-01
  0.26004452E-03 -0.16524391E-01 -0.22807756E-02
  0.44433156E-02 -0.13601768E-01  0.16593788E-01
 -0.19361098E-01  0.71901380E-02 -0.10251664E-01
 -0.93544128E-02  0.70041609E-02 -0.10318524E-01
 -0.17320576E-01  0.99630333E-02 -0.40196840E-02
  0.10793752E-02 -0.57694708E-02  0.13059995E-01
 -0.44057075E-02  0.21935764E-02 -0.19309023E-01
  0.39589015E-02  0.28680904E-01 -0.43467337E-02
 -0.49004435E-02  0.14687941E-01  0.10022057E-01
 -0.51381972E-03  0.44646605E-02  0.19539464E-01
  0.12064905E-01 -0.48343514E-02  0.97446707E-02
  0.15001387E-01 -0.29329889E-02 -0.10404416E-02
 -0.24293739E-02 -0.57958879E-02  0.89744173E-02
  0.32636964E-02 -0.17956329E-01 -0.23894299E-01
 -0.10878056E-02  0.99677430E-03 -0.43013924E-03
  0.52756973E-02  0.60140904E-02 -0.15514698E-02
 -0.33707306E-01 -0.12805092E-01  0.11157091E-01
 -0.17907775E-01  0.12492854E-01  0.38962925E-02
  0.74370754E-03 -0.11266502E-01 -0.59870217E-04
  0.16553857E-02 -0.34898482E-02 -0.42987809E-02
 -0.30728126E-03 -0.59768848E-02  0.78965066E-02
 -0.53982334E-02  0.49625502E-02  0.60925971E-02
  0.19005823E-02  0.65627823E-02  0.11325039E-01
  0.58256370E-02 -0.26799075E-02 -0.15583513E-01
  0.94074390E-02  0.32760387E-02  0.80888143E-02
 -0.26827391E-02 -0.74685916E-03 -0.11342093E-01
  0.15116021E-01 -0.17491413E-01 -0.11278233E-01
  0.43820310E-02 -0.17746309E-01  0.17122629E-01
 -0.13810081E-01 -0.56973761E-02  0.10406818E-02
  0.77845110E-02 -0.10255386E-02  0.20354624E-02
  0.44118564E-02  0.63760722E-02 -0.11315109E-01
 -0.35352179E-02  0.62544207E-02 -0.73773797E-02
  0.74697093E-02 -0.14748919E-01  0.41312552E-02
  0.15080180E-03 -0.11502219E-01  0.53363373E-03
  0.78812258E-02 -0.18739731E-02 -0.85592516E-02
  0.31115101E-02 -0.52617341E-02  0.36953784E-02
 -0.11992349E-02 -0.20754969E-01  0.73004025E-02
 -0.67235546E-02 -0.46522028E-02  0.89467250E-02
  0.41373640E-02 -0.20301905E-02  0.10697850E-01
  0.23444529E-02 -0.28475593E-02 -0.23122142E-02
  0.22429568E-01  0.14047928E-01  0.81749788E-02
  0.32058851E-02  0.78983667E-02 -0.25932650E-02
 -0.80557599E-02  0.52323956E-02 -0.19829066E-01
 -0.88418169E-02 -0.15555468E-01  0.53925448E-02
  0.17589708E-01  0.10841208E-01  0.44940529E-02
  0.14327188E-02 -0.14954284E-01  0.11766911E-02
 -0.11361619E-01 -0.41254175E-02 -0.90655288E-02
 -0.34549304E-04  0.19623829E-02 -0.20378709E-01
 -0.13913978E-01  0.16312978E-01 -0.66413771E-02
  0.10316331E-01 -0.10198546E-02  0.10291208E-01
  0.30825631E-03 -0.82475383E-02 -0.62791974E-02
 -0.16944841E-01 -0.47260208E-02 -0.19877703E-01
 -0.10762174E-01 -0.31151334E-02  0.89878438E-02
 -0.54312410E-02  0.12823975E-01  0.11371182E-01
  0.62625997E-02 -0.25338938E-02  0.99126378E-02
 -0.17737779E-02 -0.39627238E-02 -0.86118183E-02
  0.41024259E-02  0.10066106E-01 -0.59123681E-02
  0.23904304E-01  0.12200168E-01 -0.43209704E-02
 -0.98510205E-02 -0.23614372E-02 -0.51069784E-02
  0.96619631E-02  0.12389541E-02 -0.14641930E-02
 -0.20465450E-02  0.28656418E-02  0.81926705E-02
  0.20016043E-01 -0.21152662E-02 -0.59955671E-02
  0.24050297E-01 -0.13451761E-01  0.19214146E-01
 -0.59646300E-02  0.13672602E-01 -0.66600701E-02
 -0.70967416E-02 -0.11543679E-01  0.52532275E-02
 -0.53974932E-02  0.45094239E-02  0.26874892E-01
 -0.66897266E-02 -0.53876351E-03 -0.62779549E-02
  0.60881220E-02  0.53042991E-02  0.49264375E-02
  0.44684017E-02 -0.89208818E-02  0.46379120E-02
  0.13485738E-01  0.57036530E-02 -0.11029523E-01
 -0.60365655E-02 -0.16333001E-01  0.10859325E-01
  0.19815994E-01 -0.17627573E-01  0.26562443E-02
  0.19730102E-01  0.14750763E-01  0.47715676E-02
  0.60204000E-02  0.20304101E-02  0.50484021E-02
  0.31602281E-01  0.33163704E-02  0.15380908E-01
 -0.73620403E-02 -0.32262262E-02  0.44856417E-02
  0.18701936E-01 -0.39422391E-02 -0.21367370E-02
  0.91544782E-02  0.29974912E-02  0.36798413E-02
 -0.31855198E-02  0.20903277E-01 -0.92427477E-02
 -0.17211091E-02  0.80456926E-02 -0.54094684E-02
 -0.16032076E-02 -0.82218340E-02 -0.36708286E-02
  0.79088976E-02 -0.14433695E-01 -0.56703643E-02
  0.13737093E-01 -0.20017339E-01 -0.20212301E-01
  0.10193775E-01  0.13013715E-02 -0.98104193E-04
 
           1
  0.500000000000000     
  0.10295713E+01  0.72742751E-03 -0.67485570E-17  0.00000000E+00
  0.40420139E-01  0.16071572E+00  0.96242492E+00
  0.28663232E+00  0.45156603E-01  0.12700669E+00
  0.20005208E+00  0.28683658E+00  0.25339194E+00
  0.22108620E+00  0.16800580E+00  0.39376325E-01
  0.58956227E-01  0.22078556E+00  0.12614137E+00
  0.20449669E+00  0.95220561E-01  0.25498695E+00
  0.60985433E-01  0.11656400E+00  0.34938536E+00
  0.29874717E+00  0.74580793E-01  0.44543591E+00
  0.19321763E+00  0.27582882E+00  0.55970185E+00
  0.25895816E+00  0.22664443E+00  0.37816777E+00
  0.78424617E-01  0.26105450E+00  0.43097421E+00
  0.12504915E+00  0.84144725E-01  0.52825095E+00
  0.48950755E-01  0.13359095E+00  0.66810718E+00
  0.29577100E+00  0.10474093E+00  0.78123990E+00
  0.23033931E+00  0.29888171E+00  0.93154470E+00
  0.22320017E+00  0.18000593E+00  0.68650730E+00
  0.12756982E+00  0.25360968E+00  0.78588964E+00
  0.15922691E+00  0.93303674E-01  0.88595593E+00
  0.77635825E-01  0.48245916E+00  0.33817833E-02
  0.27482739E+00  0.39864182E+00  0.12832129E+00
  0.20123949E+00  0.59813195E+00  0.21219027E+00
  0.28540044E+00  0.55843344E+00  0.27241902E-02
  0.91186889E-01  0.65065605E+00  0.12245468E+00
  0.10472110E+00  0.38304206E+00  0.20797452E+00
  0.70900626E-01  0.44616192E+00  0.33205086E+00
  0.26982356E+00  0.44133023E+00  0.45649454E+00
  0.19180272E+00  0.58021219E+00  0.53028459E+00
  0.27420801E+00  0.52237531E+00  0.30893644E+00
  0.67201983E-01  0.59790578E+00  0.41968225E+00
  0.13323232E+00  0.39654148E+00  0.53583588E+00
  0.57781423E-01  0.44449422E+00  0.65106733E+00
  0.25669579E+00  0.40410289E+00  0.80129735E+00
  0.19324555E+00  0.58094199E+00  0.87036484E+00
  0.22469464E+00  0.46442844E+00  0.68447013E+00
  0.42207856E-01  0.55189736E+00  0.78878832E+00
  0.11682444E+00  0.39208623E+00  0.90071539E+00
  0.86524075E-01  0.80856694E+00  0.12744558E-01
  0.29302657E+00  0.77410767E+00  0.11694948E+00
  0.15738407E+00  0.87755950E+00  0.20123962E+00
  0.28950000E+00  0.85236217E+00  0.97105191E+00
  0.69728429E-01  0.93861770E+00  0.13178834E+00
  0.20268724E+00  0.76797345E+00  0.26321705E+00
  0.82353340E-01  0.81928391E+00  0.36817664E+00
  0.25306086E+00  0.74002934E+00  0.40588456E+00
  0.22136617E+00  0.96243591E+00  0.60848477E+00
  0.28500429E+00  0.90976496E+00  0.34368733E+00
  0.88087460E-01  0.95208498E+00  0.45779459E+00
  0.11928985E+00  0.71506976E+00  0.54199185E+00
  0.39924497E-01  0.81178946E+00  0.62112609E+00
  0.27235102E+00  0.74317549E+00  0.79143195E+00
  0.15103065E+00  0.91274081E+00  0.87523884E+00
  0.17509703E+00  0.80062814E+00  0.70675586E+00
  0.92714446E-01  0.97719894E+00  0.74072461E+00
  0.11374274E+00  0.71815987E+00  0.87184579E+00
  0.36267662E+00  0.11595813E+00  0.98177920E+00
  0.60304112E+00  0.13474952E+00  0.12013814E+00
  0.54267086E+00  0.30458195E+00  0.23783392E+00
  0.57462270E+00  0.19658140E+00  0.96964043E+00