(Si O2)81  (P1) ~ 3x3x3Supersel (VASP)  
   1.00000000000000     
    14.9916000000000000    0.0000000000000000    0.0000000000000000
    -7.4957993700000003   12.9831068100000007    0.0000000000000000
     0.0000006000000000    0.0000010400000000   16.3712997000000016
   O    Si
   162    81
Direct
  0.0411763426144078  0.1609347137388190  0.9626315690820259
  0.2882603249044008  0.0466810127559318  0.1265811945198897
  0.1994617750324978  0.2867876671577693  0.2536606529876572
  0.2212169636391855  0.1673070470749535  0.0398403473235428
  0.0588780502793098  0.2201729565861653  0.1257490688208497
  0.2048144729104792  0.0951946995522905  0.2546230209649822
  0.0611338676389320  0.1160491613042262  0.3495686376092125
  0.2984311108613615  0.0734799228678878  0.4456795733389309
  0.1937965582194006  0.2757950334690398  0.5600421822596826
  0.2585652620469845  0.2268244470540431  0.3773002771910371
  0.0785731425383452  0.2610645808968764  0.4319866367897721
  0.1253674914343755  0.0838796624487123  0.5288252681954373
  0.0491063121476481  0.1342953926854345  0.6678001971369394
  0.2958649850889311  0.1043436104672702  0.7815096401465064
  0.2296610582979002  0.2984030044036662  0.9313313026441634
  0.2229856942970391  0.1793385239816483  0.6863759059970539
  0.1275558570589389  0.2542250478001581  0.7848403686573517
  0.1593656026189274  0.0935323664871108  0.8863691775374627
  0.0776457880691078  0.4827173774292927  0.0030024429068948
  0.2742262568663731  0.3991587927355562  0.1286819719155622
  0.2012323498676147  0.5982656784925552  0.2126549316122968
  0.2854536949422926  0.5584289473712131  0.0025897495833642
  0.0910317905952471  0.6509911224384159  0.1221609947746681
  0.1046820388186965  0.3825905927276516  0.2079296616999761
  0.0705397489606103  0.4467128670486288  0.3328284918477420
  0.2696063549015497  0.4411360007129354  0.4558842157951823
  0.1921011795771855  0.5800174046120007  0.5303692114059007
  0.2738017823382707  0.5212662346964827  0.3089581784796886
  0.0671215138140967  0.5976408747743851  0.4196219951217425
  0.1326414727456777  0.3960757367178744  0.5356316661627927
  0.0573894342390704  0.4452482098835034  0.6516195544407403
  0.2567478065161927  0.4034237958584456  0.8012793537758013
  0.1935142710593410  0.5815499535809118  0.8703767092301412
  0.2258973941156104  0.4648719448624325  0.6839046950952369
  0.0424604569961060  0.5520899468565833  0.7884612886711700
  0.1155657724713927  0.3922785704704526  0.9011026235303927
  0.0871954865518474  0.8079675805136805  0.0133445481998663
  0.2928906033059189  0.7740606985584650  0.1169693150444985
  0.1580796825446081  0.8780757790541220  0.2011993545200808
  0.2895631930457742  0.8522219967691108  0.9716626782525283
  0.0704184691435563  0.9393251574214893  0.1314205993603643
  0.2022424462517359  0.7684479698851382  0.2630490065637290
  0.0835273021122805  0.8213464507443401  0.3680319995135143
  0.2527470941751473  0.7396760817875299  0.4053740427953850
  0.2218490811476003  0.9627562987279644  0.6085785895033639
  0.2852458161143403  0.9104247648381202  0.3435191419411064
  0.0880588982034529  0.9523142442001353  0.4575112730046745
  0.1202648543160941  0.7150083147982311  0.5409453748367870
  0.0407190245806506  0.8119004335012068  0.6215202405698160
  0.2727292767994888  0.7433746602786394  0.7914849505896083
  0.1512457490541055  0.9130599398586290  0.8755620921803621
  0.1757678314224271  0.8016141527841910  0.7074289537552182
  0.0937190694277147  0.9771897843438800  0.7410025537585491
  0.1130317149671550  0.7178354661224181  0.8718444799262660
  0.3624818313480649  0.1156014798661633  0.9822111613842111
  0.6035231759735417  0.1345897424076056  0.1201577887714067
  0.5427435722015559  0.3052900488655308  0.2370053539686113
  0.5740628604050417  0.1957410366559942  0.9697666938340941
  0.4070614796890137  0.2510832054864426  0.1015210423475802
  0.4336906116965756  0.0716510375978624  0.2249885119362789
  0.4491037876074843  0.1650942050400966  0.3554032128598262
  0.6023855266685285  0.1076882663902680  0.4414561859666185
  0.5732572927682460  0.3194290543548382  0.5295998719241624
  0.6334495954094013  0.1848618147464623  0.3112475558191894
  0.3823440577745104  0.2525213193676286  0.4702757883230216
  0.4622942157671347  0.0920063939890505  0.5749790596494908
  0.4345022764784023  0.2291829414861296  0.6668688417511169
  0.5885649577344130  0.0475081579604642  0.7240196960898441
  0.4608474824206351  0.2259843077702649  0.8410132719023440
  0.6062437115118319  0.2208554359827496  0.6549748685549505
  0.3629922090194254  0.3117730123740408  0.7911988240151978
  0.5005755608371230  0.0848836732222518  0.8513920053447511
  0.4339660559118530  0.4984052331780112  0.0535906242939343
  0.5744929005414923  0.4085852697774837  0.1054012726662590
  0.4922846270834426  0.6170943570972872  0.2380558573735525
  0.5846871448748017  0.5342469834401423  0.0002555974648849
  0.4255266822345061  0.6576676887628394  0.1064646407387845
  0.4361607288319186  0.3810856356843271  0.2253503430864260
  0.3892817069826682  0.4590844782192778  0.3259318922874966
  0.5549332411924921  0.4541722703685194  0.4615196273831094
  0.4718479579446119  0.5762618322032231  0.5517851513822140
  0.6079061938011240  0.5670920954932270  0.3277703666706800
  0.4574728750728129  0.6172577832975601  0.4042324771399597
  0.4146948571996323  0.3865409919021975  0.5602370482783707
  0.4259983378037114  0.4940461145547790  0.7110724808114915
  0.5549906479645639  0.4150401216698337  0.7890080445893505
  0.4722610574720584  0.5403164751538149  0.8878466187930092
  0.5755857008791651  0.4993140542877588  0.6434945406564347
  0.3593202089126846  0.5941051531593200  0.8111365236101179
  0.4656205968062248  0.3779279356758789  0.9307408425399125
  0.4760633079596031  0.8921770338143269  0.0084810734383486
  0.6292439201981437  0.7444772767664729  0.1259930028208236
  0.5358770224369492  0.9760142053937381  0.2472938717293668
  0.6136384464545329  0.8488044718626346  0.0062223231733481
  0.4225187389529886  0.9833282646843786  0.0912159202366911
  0.5024797238897522  0.7897340437084579  0.2043692010647883
  0.4077626908553126  0.7991546824369368  0.3364670986317607
  0.6050362798269409  0.7557841976783291  0.4774076804539100
  0.5219806259413585  0.9557268482228445  0.5719913713688192
  0.6005163343822458  0.8624175112221690  0.3437244460156132
  0.4441796971951780  0.9477969955233365  0.4282292189743929
  0.4553974000426134  0.7398259567038931  0.5567049675875804
  0.3525127977193081  0.7999227950882684  0.6219733558381612
  0.5901864504864013  0.7338839839915491  0.8091086148436064
  0.5400596631203669  0.9184284033892722  0.8508852107917911
  0.5429342642816698  0.8408932841414621  0.6818223709800698
  0.4001081678191170  0.9359435562118820  0.7647887439276619
  0.4612399348178887  0.7177368108527014  0.9244205374040249
  0.7236228661273308  0.1462754311598299  0.9935833617264950
  0.8978453655006600  0.0433657260145333  0.0775354414212450
  0.8249432986602618  0.2263495910181314  0.1899160886311762
  0.9265828619873924  0.2090107872850041  0.9759984053905548
  0.7342061479424802  0.3052878379923789  0.0763355359538473
  0.8238922775230632  0.0394817055489189  0.1948769412202466
  0.7227539193874742  0.0864016533112614  0.3130880624116970
  0.9450710898864263  0.0845654371464610  0.4641371256206314
  0.9282815573835488  0.2993159185478243  0.5441923055095597
  0.9168741814259490  0.1557152798881927  0.3202138892044973
  0.7964889759172776  0.2301199300298923  0.4248219236458078
  0.8322316075004912  0.0877292935035169  0.5781310575850958
  0.7629111257961562  0.1801173087332092  0.6302835083608400
  0.9428016902792690  0.0740859619830625  0.7964732939619346
  0.8009529900486918  0.2281883408925199  0.8779116605235758
  0.9505548513359279  0.2201897248685538  0.7080143503317684
  0.7259783311147437  0.2545003703987229  0.7533410620668399
  0.7986701796533483  0.0437924989621179  0.9015002384561139
  0.7729126481327034  0.5094888931634535  0.9985133077051341
  0.9096379065448800  0.4005758722341546  0.1203359538297931
  0.8338872906058856  0.5557236777017470  0.2059362436804770
  0.9658282922675406  0.5795427974087162  0.9787489803651939
  0.7366896517518698  0.5904767746956443  0.1199736065612434
  0.7797271613648958  0.3740812590269805  0.2323114081342257
  0.7245862976891567  0.4800848113668405  0.3329849925519928
  0.9428754355337509  0.4125072394690026  0.4352304694506295
  0.8647231195844738  0.5637157178104206  0.5636820593699280
  0.9379724547055900  0.5214915966229892  0.3154123067508922
  0.7356301956673250  0.5860068556150182  0.4666111279217820
  0.7861798054900753  0.3540368243808165  0.5339840924180702
  0.6848795182997814  0.4085763343658256  0.6672073772819013
  0.9367727861438371  0.3720440213231552  0.7656046804002173
  0.8595734835750883  0.5610379176192374  0.8346782131553709
  0.8943396930747181  0.5086726578439700  0.6776363909913955
  0.7434936208307876  0.5929719477890202  0.7441780444660724
  0.8479763063768023  0.4148181478686669  0.8680962468199224
  0.7071207240059301  0.7173611894851132  0.9688380825897280
  0.9146101187755783  0.7454985911740830  0.1273293323977135
  0.8783816230454580  0.9245755050446083  0.2589256202445878
  0.9173318332252691  0.8379238255925209  0.9992385386534859
  0.7889568296152433  0.8809162557339064  0.1001798421170791
  0.8023385269708651  0.7100181255996643  0.2565472513559925
  0.7379657107401741  0.8027666903807512  0.3555391354178175
  0.9384512111314954  0.6882766213235847  0.4485758124450869
  0.8708517401226329  0.9159059687970349  0.5797844293411568
  0.9116362681112608  0.8330419962109582  0.3901688379950746
  0.7787226299886396  0.9701970096921845  0.4433907535207587
  0.8334510127904279  0.7365482864676103  0.5704384663332078
  0.7359657638446842  0.8140339911089205  0.6756986782121923
  0.9524613190693769  0.7316845841376828  0.7664463443658935
  0.8534937746340480  0.8830309605293012  0.8776921044380191
  0.9052094957087086  0.8493683112190316  0.7068796029588732
  0.7265555927593930  0.8986123390153867  0.7935751436461886
  0.7999174031217248  0.7124460610267368  0.8421967528139590
  0.1768230778907348  0.0008223033591452  0.1905302411304498
  0.1749310736431675  0.1753767298928718  0.3030331738778448
  0.9781392666387526  0.1592526663742244  0.0509994883526236
  0.1850165999418174  0.0088491248854530  0.5201516482361399
  0.1559117321718141  0.1666901350580116  0.6089112552499865
  0.9946030685574483  0.1537051439640014  0.3917419109591174
  0.1737404628128119  0.0073327611460597  0.8168278413107455
  0.1677902075748617  0.1892124971433889  0.9623629953792586
  0.0202538169735902  0.1719447099695572  0.7494794039945839
  0.1617970852271073  0.3229125458188741  0.1734305707809795
  0.1613510971378013  0.4952091781281985  0.2573050429702675
  0.9940561521488795  0.5140880809391214  0.0588683219905659
  0.1846354109628249  0.3398445864703635  0.4885888961897367
  0.1599889317286803  0.4784416654456549  0.5964199723861882
  0.0076806854374744  0.4890832667327791  0.3660316305048038
  0.1747188341538250  0.3185760222607666  0.8618174476942877
  0.1765841559612709  0.4971948953575832  0.9406160261291471
  0.9811800146038897  0.4733805700178750  0.7159700955841614
  0.1846650389676094  0.6979314234943421  0.1800235523585565
  0.1763339165376402  0.8517386695202324  0.2937784979761741
  0.0004123222637085  0.8322628150242177  0.0697529773905655
  0.1716607210797504  0.6674847825337753  0.4841467890401454
  0.1466275348251661  0.8106639002241434  0.6122865934220860
  0.0061244633309427  0.8267475983839307  0.4235870171285723
  0.1565285866435110  0.6485633577183209  0.8159214582355243
  0.1670973614008495  0.8154361334333246  0.9269438411652343
  0.0052801170883469  0.8378637349535671  0.7042693502109593
  0.5167453962242847  0.0425169474585189  0.1786788319028095
  0.5101904973975041  0.1711534501764835  0.2716910980436636
  0.3207642739352781  0.1402060079035153  0.0695015416793694
  0.5158821924624089  0.0450667064218618  0.5003463796789260
  0.5271318555285313  0.2329507481651079  0.5993127556557197
  0.3579191150277685  0.1752144686717260  0.3965316014034534
  0.5079480159318688  0.9950030085988840  0.8092217755141984
  0.4570665533277010  0.1485433962794870  0.9226506212248844
  0.3422187916710395  0.2151181723252189  0.7340019817813855
  0.4861574805627306  0.3267610092199763  0.1678582520818688
  0.4832556514993177  0.4974845548649046  0.2751080220171744
  0.3454477948656646  0.5382913111883471  0.0693778303589861
  0.4700801494257407  0.3510573676074745  0.5021451547655608
  0.4729482080587272  0.4893380934240381  0.6166619377272388
  0.3459779313297358  0.5229482489208088  0.3695885531836801
  0.4655590500703476  0.3376891041649914  0.8388389312306568
  0.4756084790720835  0.4763567023315434  0.9619905614447336
  0.3166348510731364  0.5024901555702956  0.7437106194760970
  0.5263373855145778  0.7085513548111317  0.1648206266886051
  0.5206122356945689  0.8614384624656999  0.2855887377680990
  0.3759133988321386  0.8752656228877511  0.0509109400501799
  0.4832440506797166  0.6690164566295687  0.5013785144704512
  0.4817064546968625  0.8356932501144740  0.6097103753767377
  0.3454011108024302  0.8477659132100230  0.3691446180399507
  0.4674929009644356  0.6568166451918579  0.8497140495349208
  0.5361912080795715  0.8539649318374978  0.9401458368137472
  0.3054931363599687  0.8172435022278099  0.7046924470001533
  0.8441408323364605  0.9575526459341326  0.1617557039916211
  0.8314066321512652  0.1335532845692051  0.2495241974276698
  0.6666664812615476  0.2010076785878804  0.0370517458524178
  0.8540641555100860  0.9996845142661055  0.5206025338440345
  0.8906913873533145  0.2073722007367990  0.6256179083507302
  0.6987832922725424  0.1503349566565753  0.3671905163035877
  0.8343328505104907  0.9688881473975466  0.8458557027936274
  0.8215697968029434  0.1561393178052949  0.9332723088069313
  0.6715106926771354  0.1668806632318663  0.6897666816138258
  0.8066901398652238  0.3192110558476247  0.1574172359708965
  0.8264398346534345  0.4850731129137791  0.2697306080821976
  0.6706349974316507  0.4936426586000489  0.0536915803861324
  0.8547121032145500  0.3172036800050979  0.4788123687521891
  0.8067487149284421  0.4547473609374281  0.6192159346421363
  0.6541809301738365  0.5104846142717060  0.3933192811306035
  0.8171449247617734  0.3134722258684327  0.8060472375880295
  0.8584587810191902  0.5118852947246405  0.9177968127751958
  0.6312362647198269  0.4915593743604889  0.7159759961631375
  0.8336345309878644  0.6559594278967766  0.1756456766788714
  0.8375403202865394  0.8124376251068636  0.3139359516322746
  0.6911714722687903  0.8057977641409273  0.0468004406369485
  0.8366735433142056  0.6426220513967807  0.5223828642306304
  0.8367884860319826  0.8264308300282387  0.6324907344904001
  0.6723694400261867  0.8441016860147879  0.4060680675621942
  0.8535102773841481  0.6611576937424019  0.7986569619089533
  0.8360802034898266  0.7863050725322031  0.9313735717242299
  0.6217220063010630  0.8146145178137334  0.7297153557898260
 
 -0.19390415E-01 -0.56863109E-02 -0.67661884E-02
 -0.25959471E-01 -0.39583161E-01  0.13931770E-01
  0.16965943E-01  0.12699835E-02 -0.87984516E-02
 -0.14396171E-01  0.18143979E-01 -0.15193291E-01
 -0.68398941E-02  0.15906954E-01  0.12844966E-01
 -0.99159753E-02  0.67151531E-03  0.11916056E-01
