(Si O2)81  (P1) ~ 3x3x3Supersel (VASP)  
   1.00000000000000     
    14.9916000000000000    0.0000000000000000    0.0000000000000000
    -7.4957993700000003   12.9831068100000007    0.0000000000000000
     0.0000006000000000    0.0000010400000000   16.3712997000000016
   O    Si
   162    81
Direct
  0.0499750545169783  0.1078651774581109  0.0069954293508306
  0.2841587296452635  0.0899732395864965  0.1091472223779953
  0.2230507328739118  0.2563965730101074  0.2322405243004129
  0.2306815860550351  0.1827390964342831  0.0343085418811461
  0.0684083224827450  0.2035543200067102  0.1293765076944942
  0.1655381134055183  0.0296466948893388  0.2662610706615210
  0.0629319906464857  0.1303436394531213  0.3181104138373424
  0.2941249285642916  0.0730785389710084  0.4698499561069154
  0.2005804533374086  0.2602164106278047  0.5436319244635310
  0.2217317047801145  0.1701975888281815  0.3797230050709428
  0.0981153738678636  0.2602400164395992  0.4388290307330849
  0.1352630137436564  0.0882995157043257  0.5465613710543438
  0.0338003903572902  0.1507883746969834  0.6573530511970427
  0.2840643952086811  0.0381438562204368  0.7639237107585295
  0.1944028091291809  0.2334382374511042  0.8851629857021365
  0.2182823388617911  0.1576148806292429  0.6849726630145212
  0.0542526215536803  0.2175342726029991  0.8045321761700054
  0.1351089703197421  0.0622433097329917  0.8720319561129058
  0.0624527751291561  0.4341864987125708  0.9816477442289613
  0.2201690896399446  0.3612202216398544  0.0787036265769257
  0.2263564862276774  0.6035047272209466  0.1854959464568969
  0.2516165552450376  0.5250003789646256  0.0079942713882721
  0.0578753131784384  0.5860057935739674  0.0952715783530231
  0.1422574879354325  0.3775374549023689  0.2330622775842488
  0.0456321325567762  0.4652615774625217  0.2934668029199700
  0.3042729198541075  0.4224160067026219  0.4371177010954180
  0.1666549484935666  0.5631297660974581  0.5216553408375565
  0.2372626440649296  0.5314544490716915  0.3621097101310063
  0.1196661484149958  0.6438035422359459  0.3911405294056592
  0.1032680151834910  0.3702667034467272  0.5310507296689454
  0.0489942394536882  0.4778270058643025  0.6314214218102154
  0.2451694009675015  0.3965823182052891  0.7604808353303787
  0.1961924127971506  0.5834376056297464  0.8628315877576631
  0.2540607464982843  0.5416702458795555  0.6518300818685351
  0.0709457038187865  0.5932025155417493  0.7711792943692194
  0.2078727729149799  0.4010296126781874  0.9064250417107076
  0.1297342889593588  0.8629072777023608  0.0261559375286389
  0.2357193263729535  0.7157802054446581  0.0731288480847483
  0.2097736874063817  0.8933763606110827  0.1979735029709056
  0.3145615491279335  0.8922078205963083  0.9821266276593957
  0.0702552878679001  0.9629470395653064  0.1147179104988526
  0.1597226476611499  0.7146094130509376  0.2268851023875629
  0.0834230374815446  0.7943368671967417  0.3666553109525608
  0.2951051682438205  0.7506908898703786  0.4691912525720447
  0.1837939723807677  0.9363608788393313  0.5571040210889933
  0.2717542818056803  0.8493539686205024  0.3534794646837596
  0.1244385549724733  0.9711005226066924  0.4147499050007183
  0.1514879970258909  0.7344818276592840  0.5492810532723439
  0.0604697207602419  0.7594890111265150  0.6564167564320745
  0.2292700111843101  0.7426766216064018  0.7713190817330772
  0.1973721131944310  0.9094358723301997  0.8726609379887096
  0.2869945951237856  0.8649858364902965  0.6333735612040948
  0.0884477316944870  0.9095127317229116  0.7679265698590541
  0.1417610847823991  0.7068381538894483  0.9135000457149868
  0.4309063387492138  0.1591199078236860  0.9917558837439718
  0.5937754800640250  0.0690787983975373  0.0880125760918648
  0.5355235374700984  0.2778094525181635  0.2351246834481496
  0.6274914455120771  0.2463124712602094  0.9748801720199074
  0.4273672823998004  0.2843506979799454  0.0966140735813912
  0.4829531923207750  0.0752015236912813  0.2268001194272559
  0.3698916772233050  0.1470642890689972  0.3295920574334821
  0.6472742798382757  0.0965668142836923  0.4913200893328085
  0.5463395121296419  0.2503558555959523  0.5083964413701634
  0.5820042516305707  0.1760308269555610  0.3394679615532986
  0.4020022804047118  0.3042741072472073  0.4261765093523353
  0.4743757898383053  0.0775279441835861  0.5774727339914081
  0.4002667061455856  0.1650725841223057  0.6453693368248167
  0.6137404609937526  0.0699362541877528  0.8063419987186902
  0.5210445264357147  0.2756702720652047  0.8673722836171631
  0.5653023700652660  0.1738227173631529  0.6837690401893708
  0.3905654250677829  0.2813418844888457  0.7845335896413385
  0.4465385670064629  0.0414610782117516  0.8764684062883961
  0.4216825059754022  0.5133561368849833  0.0245263801964528
  0.6439544989287173  0.4421665833652594  0.1343176977917968
  0.5496290337621885  0.6019080997756068  0.2308196041959941
  0.6040637138451979  0.5651962108476747  0.9979697883321887
  0.3960246327482638  0.5988571639891517  0.1279060619827689
  0.5115967931166776  0.4201168421256606  0.2379930668999678
  0.3640141894107502  0.4962538646794722  0.2795525122207249
  0.5895962290582903  0.4324776456480505  0.4491436282652485
  0.5405296740445139  0.5723582710233150  0.5094503412973057
  0.5690875162266114  0.5286876906255724  0.3781250917607944
  0.4083672557328104  0.6157134406385472  0.4470921733036523
  0.5134882509672961  0.3772467041212004  0.5798927083098051
  0.4236726326060095  0.4975906039789588  0.6732579386748203
  0.5913870842915230  0.4559414521404775  0.8203216743587981
  0.4320907115503799  0.5672273956013372  0.8759215347246074
  0.6147597604099404  0.5728211884895270  0.6822834953063517
  0.3660448670541958  0.6200852327468807  0.7452675183858701
  0.4447546405546279  0.3934364709334708  0.9207377661777082
  0.4635572895419083  0.8455974592194649  0.0376878963182148
  0.5700660534671401  0.7075300727441277  0.1213522091108499
  0.5648954587397335  0.9768458444276920  0.2311167065482108
  0.5658898427844548  0.7555481218062382  0.9707177364047943
  0.4120537746553058  0.9434512067901466  0.1246935629526863
  0.4717537103962754  0.7773667393959486  0.2057368281003919
  0.4170966957977743  0.8337466791228881  0.3271134632770990
  0.5945433438131482  0.7637170058372598  0.4581866481502589
  0.5817739584619782  0.9507677496278453  0.5637142723145214
  0.5919530910651608  0.8417755303422199  0.3144683112719949
  0.4357917803321419  0.9370379502319102  0.4542256918837421
  0.5077516323987069  0.7401249641246475  0.5736830706042084
  0.3634237804937786  0.7545763876182482  0.6522094185533939
  0.5640030945011442  0.6993755712657602  0.7665968773812659
  0.5648776340351889  0.9290901204187058  0.8913075919796922
  0.5738631674382151  0.8564447020872475  0.7133395037978222
  0.4173879950554890  0.9069374575695549  0.7660652448525259
  0.4316942585035782  0.7501309695449713  0.8864050879604214
  0.7860997076480133  0.1877553029604870  0.0700904896831420
  0.8795553525796581  0.0772609584832212  0.0668858818443810
  0.8396663252607797  0.2740659103661324  0.2718948633707680
  0.9935722985354558  0.2596738129256459  0.9988993198228325
  0.6726300916375866  0.2532396601646031  0.1498413802098142
  0.7663331289334886  0.0757078989789378  0.1933094117992706
  0.7244355460973850  0.1005375790069178  0.3483943185073644
  0.9506525916950873  0.0441360374309908  0.4346092080371455
  0.8063163724242103  0.2397998053738843  0.5057437174785576
  0.9206865540172194  0.1800064666710730  0.3367736130163926
  0.7299784433132275  0.3044629569574607  0.4050887335522733
  0.8751717829140240  0.1227905765341618  0.5670501614645765
  0.6959323454457002  0.1280236342023359  0.6383420348256564
  0.8829090526225197  0.0705474734603218  0.7635495515496288
  0.8488940529308686  0.2368517294706156  0.8815325905242221
  0.8949083997542253  0.2481648634041091  0.6772663580592203
  0.7291240314681481  0.2578939189085987  0.7752776462560791
  0.8048245210116266  0.0470701532470840  0.9609530245432161
  0.7087539359825135  0.4663970999962415  0.9834817123560837
  0.9111850119529192  0.4071065958011782  0.1181569513856550
  0.8582911618898430  0.6051966711249656  0.2465075151787451
  0.9211009647568839  0.4905078672520183  0.9771474871829317
  0.7666266692178431  0.6279907887922705  0.0956142648257939
  0.8116651509480854  0.4155652507772211  0.2085141699347718
  0.7258561260135293  0.4537805909242776  0.3468520988771644
  0.9735620494720507  0.4272536926203038  0.4478042141332331
  0.8361319082081535  0.6116366355097569  0.5712594522574342
  0.9105224252149925  0.5091659541809563  0.3493773016053430
  0.7558896429655445  0.6128020037737750  0.4415824329037433
  0.8104372686970327  0.4224559830845073  0.5217868927395787
  0.6842440487341601  0.4365008273787432  0.6527571937059755
  0.9495737476443338  0.3966884165800003  0.7873777621277859
  0.8472107048059470  0.6057205960379510  0.9059561694512446
  0.8898065778002247  0.4944880060722319  0.6878657032622336
  0.7627713942744431  0.6070300122173073  0.7424947921105097
  0.7923903086577291  0.3610198321225944  0.9127334182537317
  0.7289559054739980  0.7545405197833496  0.9885661991185176
  0.9617246417545786  0.7969080911997467  0.1282687214345506
  0.8212118708178744  0.8896547387921669  0.1960310881618579
  0.9255819798674119  0.8280471994424735  0.9811616759845307
  0.6769876622399118  0.8787961408829349  0.0810405189752140
  0.8177734598569104  0.7530487581438099  0.2312017637323411
  0.7701535234017011  0.8535890149388073  0.3487611562195844
  0.9336750006699918  0.7768176888002499  0.4490451409514930
  0.8569603292919911  0.9541800107007908  0.5908115077111245
  0.9344005695028363  0.8773266624960125  0.3421641688862931
  0.7266101833078811  0.9636667742492185  0.4696598033272441
  0.7995593090519439  0.7777383301118068  0.5616645005223826
  0.7215472013998293  0.8120657595611460  0.6946725053933301
  0.9680987310028217  0.7161506526643393  0.7869043700036226
  0.8592570933060715  0.9110438096701474  0.8792998485763506
  0.9186553594792172  0.8397144318818089  0.6766758437876654
  0.7332126500417652  0.8994059054241571  0.8162110088185822
  0.7739765899178108  0.7105276799615320  0.8578139748300991
  0.1743140549295180  0.9906229503715193  0.1689994671449246
  0.1695786270101845  0.1479199141604527  0.2829622027857846
  0.9949864799402858  0.1552815482344399  0.0540596683171932
  0.1835582117600945  0.0136935468911695  0.5025505657035727
  0.1419474446913332  0.1713685029129797  0.6188271050759616
  0.0044022293781369  0.1583895587910580  0.3857527936083462
  0.1712189818530567  0.9862086104266954  0.8151248069014350
  0.1640857494993452  0.1382414120602015  0.9463971141264952
  0.9744939503280290  0.1929537493962853  0.7250964327550665
  0.1725904809854448  0.2968378505250200  0.1720866697791422
  0.1625429164614509  0.4939610951478917  0.2587003103422886
  0.9924288328388613  0.4690993516213535  0.0467998530038021
  0.1783966829695986  0.3415233438960758  0.4850439721294432
  0.1514274370490482  0.4883157986788503  0.5874049170603800
  0.0083219182739947  0.5060040483544165  0.3618769725724948
  0.1704006563938704  0.3072871058131814  0.8336767957943907
  0.1812203150943086  0.4872526670285380  0.9328529059076853
  0.9921544087510250  0.4810588101944855  0.7222830779034907
  0.1717042226350870  0.6568370426009978  0.1523574608317259
  0.1878676100467753  0.8246808206336589  0.2851141617435777
  0.0132908563594879  0.8610154069259979  0.0503309548252287
  0.1668761528087829  0.6625272408016168  0.4809676595695133
  0.1686451358586881  0.8260117462123402  0.6081145821398406
  0.0216489584204268  0.8600136627812986  0.4036513676810379
  0.1639442157922750  0.6573295652425302  0.8273993450388127
  0.1888852386570200  0.8344477155103849  0.9412940598692424
  0.9997504695244303  0.8147539835133676  0.7192470178301407
  0.5245379620295681  0.0259486658203596  0.1630791842044936
  0.4821558081964790  0.1594230364334644  0.2851647853380576
  0.3441627929418807  0.1812883852178011  0.0454967132899610
  0.5246069118862245  0.0252032494328336  0.5131620100105422
  0.5249217390029339  0.2032447588081388  0.6004600094643152
  0.3428061335138527  0.1813482847034597  0.3989339913489613
  0.5066268778198453  0.9771060794698195  0.8461314026856208
  0.5117628565776209  0.1817467569399209  0.9144245820278644
  0.3321820261591024  0.1602708405193461  0.7182495260230575
  0.5162459247004720  0.3502619831066487  0.1647610216143104
  0.5040160235928424  0.5059149725950354  0.2919685493513573
  0.3236656888268502  0.4890177848597112  0.0666546936328506
  0.5088586074574489  0.3376901187603503  0.4884341275429068
  0.5065205492553410  0.4958250646777781  0.6160319783816425
  0.3074514714388635  0.4838754164804531  0.3713177943769899
  0.4844396835596657  0.3639825984069195  0.8453119664695569
  0.4895500473048386  0.4908110699453142  0.9669966254040173
  0.3320878367067102  0.5106417303002142  0.7107771222428638
  0.4883267767278682  0.6744483295338701  0.1876131581533700
  0.5094500335456176  0.8659329056801935  0.2658057430526072
  0.3551695338922134  0.8568711955211198  0.0531378162380604
  0.5147613214149447  0.6673961558207095  0.5097484392571517
  0.4983251140458366  0.8203278227004960  0.6284696023713717
  0.3593338435722940  0.8416105204730576  0.4101502792378768
  0.4609485398615511  0.6760723524077147  0.8163096859327116
  0.4940305549336132  0.8156347750845403  0.9580419652534424
  0.3294723803712409  0.8099456874181441  0.7083634340566399
  0.7722461015215718  0.9639199565568074  0.1632748860446293
  0.8230613556156513  0.1538530741174832  0.2830967257605378
  0.6903456072330123  0.2021842566330627  0.0597221956829701
  0.8573419725668124  0.0237183269628664  0.5115549900960853
  0.8106718552366017  0.1880222704037105  0.5890295494338481
  0.6753538081925152  0.1719746836531415  0.3976689293165305
  0.8191362627640867  0.9966304109727370  0.8651803296796252
  0.8585941174309993  0.1886269278479602  0.9778225883082587
  0.6475327464543681  0.1491130756288814  0.7303284122908215
  0.8146914428852555  0.3234350891873845  0.1771142383750026
  0.8232782430206573  0.4839513677294062  0.2860990896840476
  0.6799616498093478  0.5153886356168471  0.0606104195247925
  0.8413621506555431  0.3557550703823679  0.4631289913272994
  0.8260580674297752  0.4988729025276384  0.5979543478918522
  0.6732603555208898  0.5123271898087775  0.3966958216372145
  0.8344053331262377  0.3132371889015958  0.8347904389303826
  0.8140414473058312  0.4778279236683902  0.9204699226431379
  0.6652980365053711  0.5090900510357321  0.7189742414813159
  0.8593135676901326  0.6987482774150701  0.1622872986276126
  0.8343218574714457  0.8426343282496500  0.2844534974544249
  0.6560679277424514  0.7813979396794289  0.0391495503220786
  0.8282985908202815  0.6939728579459480  0.5038083065267057
  0.8139997712696014  0.8482927129120145  0.6379517893831876
  0.6634457935336479  0.8434664904097475  0.3917672344529657
  0.8404742335193908  0.6558295337938258  0.8225364767886502
  0.8261497886732515  0.7976200202817878  0.9215641212807648
  0.6441747896916135  0.8198412015899189  0.7673858253974235
 
  0.27353599E-01 -0.34166356E-02 -0.15184008E-01
  0.32858968E-01 -0.37725523E-01 -0.73742827E-02
  0.78701947E-02 -0.21710491E-03  0.17755144E-01
 -0.83001127E-02  0.21171862E-02  0.11543003E-01
 -0.11159901E-01  0.37475683E-03  0.14791716E-01
  0.68209064E-02 -0.15926247E-01 -0.10290852E-01
  0.88824244E-02  0.36608307E-02  0.17191382E-02
  0.11609988E-01  0.28592938E-01  0.14193386E-02
  0.11619537E-01 -0.11667542E-01 -0.29598324E-02
 -0.10779695E-01 -0.11202501E-01  0.16038161E-01
 -0.84935185E-02  0.29369926E-02 -0.74134228E-02
 -0.51173950E-02  0.70756960E-02  0.76111875E-04
  0.17678145E-01 -0.61314870E-02 -0.23628838E-01
  0.15078536E-02  0.28827458E-01  0.94026006E-02
 -0.14600069E-01  0.10178008E-01  0.69203270E-02
  0.55613956E-03  0.90507631E-02  0.86261074E-02
  0.77037317E-02  0.10587510E-01 -0.42815032E-02
  0.12137731E-01 -0.58288055E-02  0.43272850E-02
 -0.26591288E-01  0.22792997E-01 -0.70494881E-02
  0.17369875E-01  0.99773467E-02  0.15958618E-01
 -0.12148192E-02 -0.94296060E-02  0.77174818E-02
  0.26655789E-01  0.18130124E-01  0.59512209E-02
  0.45050373E-02 -0.27714086E-02 -0.17581878E-01
  0.34968757E-01 -0.98917439E-02 -0.76869725E-02
 -0.37472554E-02 -0.39938800E-02  0.45352302E-01
  0.36128621E-02 -0.73025257E-02  0.17020043E-01
  0.12106068E-01  0.66885597E-02  0.48828723E-02
 -0.55350204E-02 -0.29464199E-02  0.14976142E-02
  0.37962443E-03  0.16362612E-01  0.29080514E-01
 -0.13014543E-01 -0.14235897E-01 -0.32314132E-01
 -0.28977146E-01  0.14298073E-01  0.29562046E-01
  0.22747475E-01 -0.22494885E-01  0.70244643E-02
 -0.23669233E-01  0.14944787E-02 -0.12139838E-01
 -0.42429378E-02 -0.82926219E-02 -0.79972809E-02
 -0.14329394E-01 -0.15887365E-02  0.24920230E-02
  0.25259793E-01 -0.11910484E-01  0.19725003E-02
 -0.14943083E-02 -0.32502004E-02 -0.12565125E-02
  0.80436780E-02  0.28699947E-01  0.62309325E-02
 -0.24979852E-02 -0.82256896E-02  0.24734173E-01
 -0.93056660E-02  0.71267060E-02  0.30532386E-01
 -0.19895198E-02  0.98238011E-02  0.10042500E-02
  0.24008322E-02 -0.21279813E-01  0.26838138E-01
  0.63069441E-02 -0.67267885E-02 -0.92368615E-02
  0.19421341E-01 -0.96231718E-02 -0.90344600E-02
  0.56651130E-02  0.94607375E-02 -0.88302442E-02
  0.25183197E-02  0.33070700E-01  0.12803849E-01
 -0.61968818E-02 -0.11060977E-01  0.99921162E-02
  0.12141802E-01 -0.35204160E-01  0.20500215E-02
 -0.58613856E-02  0.46274637E-02 -0.23168045E-01
  0.17160691E-02 -0.59254106E-02 -0.23998236E-01
 -0.43667930E-02 -0.14986355E-01  0.12814581E-01
  0.89491518E-02  0.11362424E-01 -0.15153343E-01
  0.13057901E-01 -0.13014525E-01  0.21251523E-01
 -0.92973274E-02 -0.51649038E-03 -0.47928828E-02
 -0.67952588E-02  0.72647729E-03  0.15424170E-01
  0.23512393E-02  0.94955945E-02 -0.38904537E-01
  0.93947575E-03  0.19644299E-01  0.16085491E-01
  0.23051143E-01 -0.14265710E-01 -0.18634680E-02
 -0.15328525E-01 -0.61143884E-02 -0.73773460E-02
  0.12013916E-01 -0.17448774E-01 -0.37399267E-02
 -0.11105431E-04 -0.13887478E-01 -0.64588829E-02
 -0.10356019E-02  0.69120301E-02 -0.10069370E-01
  0.17806906E-01 -0.11403365E-01 -0.19460567E-01
  0.14494508E-01  0.66946723E-02 -0.10441975E-01
 -0.20079369E-01 -0.78772309E-02 -0.24604530E-02
 -0.12069117E-01  0.77534686E-02 -0.36644865E-02
  0.16990792E-01  0.12974862E-01 -0.25406887E-01
  0.18387521E-02 -0.75125113E-02  0.10607550E-01
 -0.82576352E-02  0.83085891E-02  0.17364178E-01
  0.22358718E-01  0.28508019E-02  0.15895522E-01
 -0.97152995E-02 -0.26036080E-01 -0.47436554E-02
 -0.11950965E-01  0.17359383E-01 -0.93659647E-02
 -0.10097935E-01  0.72059464E-02 -0.20196432E-01
  0.19654001E-02 -0.16365102E-01 -0.12704524E-01
 -0.22707794E-01  0.29374556E-01  0.16621413E-01
 -0.55953984E-02  0.60983542E-02 -0.98180673E-02
 -0.14015311E-01  0.34340268E-03  0.19856519E-01
 -0.19480863E-02 -0.22247143E-01 -0.13361693E-01
  0.18687667E-01 -0.82115514E-02 -0.35763506E-01
 -0.11401716E-01  0.35266011E-02 -0.19299763E-02
  0.59793900E-02 -0.17344912E-01 -0.44123349E-01
 -0.27565877E-02  0.13307338E-01  0.24405531E-01
 -0.54173423E-02  0.13347480E-01  0.20480704E-01
  0.20248707E-02  0.14288076E-01  0.66163581E-02
 -0.10431791E-01 -0.79006859E-02 -0.17416860E-01
  0.92741003E-02  0.62790590E-02 -0.19758345E-01
  0.36841356E-02  0.14739942E-01 -0.13568678E-01
  0.47954868E-02 -0.27604846E-02 -0.23583293E-01
 -0.53129174E-02 -0.17847175E-02  0.16646268E-01
  0.19989348E-01 -0.10907699E-01 -0.78244998E-02
  0.38085900E-02 -0.10274307E-01 -0.15349273E-01
  0.78132452E-02 -0.17397875E-02  0.25865979E-01
 -0.10198022E-01  0.12054343E-01 -0.32377946E-02
 -0.25232355E-01 -0.11726747E-01 -0.10659951E-01
 -0.40357582E-01  0.38686050E-01 -0.74880433E-02
 -0.18427690E-01  0.14048938E-01  0.13784518E-01
  0.17828488E-01  0.29877560E-01  0.14527769E-01
 -0.63985361E-02 -0.19659122E-02  0.12936778E-02
 -0.64577534E-02 -0.12109130E-02 -0.16327268E-01
 -0.61946405E-02  0.97088820E-02 -0.68419228E-02
 -0.23522316E-01 -0.11475527E-02 -0.93352019E-02
  0.26488806E-01  0.97679750E-02 -0.34744710E-02
  0.12599098E-01 -0.72272980E-02  0.19682662E-01
  0.18922885E-03  0.11108777E-01  0.78375411E-02
 -0.18400721E-01 -0.60693748E-02 -0.48033296E-02
  0.22660862E-02  0.10607544E-01  0.69917963E-02
  0.17844262E-01 -0.85666124E-02  0.75200979E-02
  0.23505448E-01 -0.10880375E-01 -0.43915966E-02
  0.24621448E-02 -0.15654400E-02 -0.21244721E-01
 -0.11629906E-01  0.31241554E-01 -0.34628937E-02
  0.12109735E-01 -0.13603793E-01  0.19915795E-01
 -0.15123520E-01 -0.19040468E-02 -0.69364072E-02
  0.63738290E-02 -0.22389883E-03 -0.92539210E-02
 -0.18098250E-01  0.23900264E-01  0.18057290E-01
  0.23149230E-02  0.13341238E-02  0.22650965E-01
  0.50750458E-02 -0.17861084E-01 -0.13612503E-01
 -0.22218190E-02  0.39435750E-01  0.11377020E-01
  0.17789126E-01 -0.35369725E-01 -0.19336732E-01
  0.28335326E-01 -0.85679101E-02 -0.82667052E-02
 -0.11819621E-02 -0.76976681E-02 -0.64002436E-02
  0.24523438E-01 -0.18019339E-02  0.29708715E-02
 -0.15023200E-01  0.77263542E-02 -0.52994375E-02
 -0.27677138E-01 -0.10266143E-01 -0.16007156E-01
 -0.15606908E-01  0.31287533E-02 -0.17492920E-01
  0.13764852E-02 -0.13126761E-01 -0.50095870E-02
  0.23242899E-01 -0.65327703E-02 -0.91570882E-02
 -0.14093672E-01  0.16245317E-01  0.15511502E-01
  0.13049902E-01 -0.10837842E-01  0.35252728E-02
 -0.74952274E-02  0.24019815E-01 -0.57290727E-02
  0.17023533E-01  0.68726048E-02  0.13613340E-01
  0.15975332E-02 -0.13522769E-01 -0.70813632E-02
  0.69801626E-02 -0.56073452E-02  0.32569315E-01
  0.95560087E-02 -0.27651522E-01  0.56823570E-03
  0.99673532E-02 -0.14299586E-01 -0.59166928E-02
 -0.19730668E-01 -0.14570631E-01 -0.46271415E-02
 -0.18119767E-02 -0.13159893E-01 -0.22687178E-01
 -0.10821060E-01  0.78617403E-02 -0.74323433E-02
 -0.11002712E-02  0.15048865E-01  0.66480672E-04
 -0.98577963E-02 -0.53446140E-02  0.71185623E-02
  0.33961948E-01 -0.12887564E-01  0.21397287E-01
 -0.22012838E-01  0.82148005E-02  0.57418443E-02
  0.29867132E-02  0.16567640E-01  0.25904442E-01
 -0.99094586E-04  0.40274818E-02 -0.75934724E-02
 -0.62556806E-02 -0.16217623E-01 -0.21134475E-02
  0.66626769E-02 -0.37408162E-02  0.14675933E-01
 -0.22858857E-01  0.10606324E-01 -0.86570788E-02
  0.71860356E-02  0.20853886E-01 -0.26584594E-02
 -0.24713914E-01 -0.20180665E-01 -0.27889319E-01
 -0.94488775E-02  0.11993796E-01 -0.66892548E-02
 -0.20440079E-02 -0.14936015E-01  0.14357143E-01
  0.35323955E-01 -0.65147919E-02  0.38080913E-01
  0.81532340E-02 -0.11440357E-01 -0.40112354E-02
 -0.11006550E-01 -0.13803445E-02 -0.11087023E-01
 -0.11700717E-01  0.21665630E-01  0.17797806E-02
 -0.70670038E-03  0.14398166E-01  0.35797350E-01
 -0.71745847E-02  0.12563436E-01  0.23925010E-02
  0.70210258E-02  0.42358815E-02  0.12400467E-01
  0.62544073E-02 -0.20277702E-01 -0.21325554E-01
 -0.23919747E-01  0.30194547E-01 -0.15232118E-02
 -0.14342824E-02 -0.17163067E-02 -0.20640028E-01
  0.29275414E-02 -0.28965872E-01 -0.10051405E-02
 -0.88429046E-02  0.87391308E-03  0.66920800E-02
  0.45550443E-02  0.62322570E-02 -0.40444126E-03
  0.41044072E-02  0.11121906E-01  0.72541120E-02
 -0.88904847E-02  0.62386223E-02 -0.14380608E-01
  0.17012392E-01  0.93055994E-03 -0.41496947E-02
 -0.31703011E-01 -0.34342877E-01  0.91766513E-03
  0.14158643E-01 -0.70697956E-03 -0.75456995E-02
 -0.54464817E-02  0.12891111E-01  0.56378744E-03
  0.45755564E-03  0.20751188E-01 -0.52023285E-03
 -0.12377040E-01 -0.18693118E-01  0.17513878E-01
 -0.67434278E-02 -0.70790837E-02  0.71458401E-02
 -0.14711462E-01  0.24468586E-02  0.14638994E-02
 -0.15755507E-01 -0.86260537E-02 -0.98701202E-03
 -0.61160975E-02  0.10192208E-01  0.15666348E-01
  0.11208830E-01  0.17194549E-01  0.84282317E-02
  0.15356302E-01 -0.11360744E-01  0.19019597E-01
  0.78722801E-02  0.90962243E-02 -0.25980957E-01
 -0.94343703E-02  0.17589383E-02  0.83294808E-02
  0.11192705E-01 -0.43037297E-02 -0.76790899E-02
 -0.50408555E-03  0.48810215E-02 -0.22965998E-01
 -0.51125611E-02 -0.13997371E-02 -0.98792964E-02
  0.13583523E-01 -0.65867518E-02 -0.44986359E-02
  0.51983632E-02  0.26058417E-02 -0.46316111E-02
 -0.10368042E-01 -0.15051665E-01  0.19645631E-01
  0.18223032E-01  0.96738481E-03  0.93265438E-02
  0.66915515E-02  0.10950122E-01  0.67436398E-02
  0.21516726E-01 -0.38796222E-02  0.25709765E-02
 -0.23235643E-02  0.15691686E-02 -0.16524270E-01
 -0.14310035E-01  0.29370889E-02 -0.36210450E-02
  0.38646940E-02 -0.54803153E-02 -0.18929897E-01
  0.20566137E-01  0.11998768E-01 -0.11693314E-01
 -0.80592539E-02 -0.13135792E-01  0.52960462E-02
 -0.72327650E-02 -0.99941586E-03 -0.17912546E-01
 -0.13693553E-01  0.10055777E-01  0.60128364E-02
  0.45098002E-03 -0.11530568E-01  0.44572559E-02
  0.18713113E-01  0.13358480E-01  0.56187088E-02
 -0.17180277E-01 -0.95838370E-04  0.12834948E-01
  0.13568493E-01 -0.56801187E-02  0.12410563E-01
 -0.18954160E-01 -0.16731764E-02  0.13945866E-01
 -0.63593211E-04 -0.13368104E-01 -0.29818969E-02
 -0.31193499E-02 -0.24419460E-02 -0.12943895E-01
 -0.12276184E-01  0.13371318E-01  0.36749167E-02
 -0.26025043E-01  0.59760521E-02  0.40614384E-02
  0.59278091E-02  0.47444791E-02  0.13667382E-01
  0.12014386E-01 -0.98417365E-02  0.20570714E-02
  0.52047009E-02  0.10247968E-01  0.11405319E-01
  0.16501621E-01 -0.72973431E-02 -0.94664897E-02
 -0.16579923E-01  0.14870059E-01  0.16310581E-02
  0.83540617E-02  0.68154849E-02 -0.28074645E-01
  0.50686208E-02  0.46180560E-02  0.12412177E-01
 -0.94453334E-02 -0.13290350E-01 -0.13987791E-01
  0.10723490E-01 -0.30676762E-01 -0.27369627E-02
  0.13020974E-03 -0.15187323E-01 -0.12350157E-02
  0.28395567E-02  0.87482249E-02  0.10606122E-01
 -0.18666457E-01  0.18654175E-01 -0.72341800E-02
  0.67456317E-02 -0.17960054E-01 -0.95128577E-03
 -0.65528911E-02  0.18196279E-02 -0.12380906E-01
 -0.11448448E-01 -0.13854695E-01 -0.29234942E-02
 -0.42287086E-02  0.12318536E-01  0.41392117E-02
 -0.16233490E-01 -0.18643741E-01 -0.23620078E-01
  0.69000860E-02 -0.76249310E-02 -0.10836712E-02
  0.11058702E-01 -0.10200568E-01  0.13428295E-01
  0.69675336E-02  0.35122828E-02  0.20517557E-01
 -0.93604370E-02  0.78328624E-02  0.11762089E-01
 -0.18661742E-01 -0.41245082E-02  0.51750016E-02
  0.39074315E-02  0.24255611E-01 -0.66395118E-03
 -0.16443441E-01 -0.24510228E-02 -0.73961131E-02
 -0.26946770E-01 -0.15876528E-01  0.27387166E-02
 -0.90079483E-02  0.12353703E-02 -0.10937911E-01
  0.93256813E-02  0.12311470E-01 -0.43494301E-02
 -0.15059565E-02 -0.15290283E-01  0.99790011E-03
 -0.27619769E-02  0.15369815E-01 -0.12271237E-01
 -0.14554079E-01 -0.10813163E-01  0.14833978E-01
  0.86848950E-02  0.48591413E-02 -0.88311676E-02
  0.27811605E-01  0.14152101E-02  0.67957910E-02
 -0.72040608E-02  0.23706787E-02  0.10317884E-01
  0.62685288E-02  0.11040134E-01 -0.49162518E-02
  0.15666679E-01  0.86962163E-02 -0.14493671E-01
  0.16409731E-01  0.14014817E-02  0.28896005E-01
 -0.99950295E-02  0.49694243E-02 -0.66061716E-02
  0.78880327E-02 -0.17639189E-01  0.10920803E-02
  0.20166909E-03 -0.29228177E-02 -0.67560650E-02
 
           1
  0.500000000000000     
  0.95092815E+00  0.63396888E-02 -0.67485570E-17  0.00000000E+00
  0.50821562E-01  0.10773360E+00  0.65316907E-02
  0.28452821E+00  0.88520370E-01  0.10892200E+00
  0.22330904E+00  0.25638821E+00  0.23278279E+00
  0.23044553E+00  0.18282063E+00  0.34661080E-01
  0.68043334E-01  0.20356875E+00  0.12982827E+00
  0.16545893E+00  0.29033350E-01  0.26594678E+00
  0.63298730E-01  0.13048462E+00  0.31816292E+00
  0.29506272E+00  0.74179698E-01  0.46989330E+00
  0.20074332E+00  0.25976708E+00  0.54354153E+00
  0.22115647E+00  0.16976616E+00  0.38021283E+00
  0.97888652E-01  0.26035312E+00  0.43860262E+00
  0.13522859E+00  0.88572012E-01  0.54656370E+00
  0.34271925E-01  0.15055224E+00  0.65663140E+00
  0.28466978E+00  0.39254047E-01  0.76421088E+00
  0.19411185E+00  0.23383021E+00  0.88537434E+00
  0.21847517E+00  0.15796344E+00  0.68523612E+00
  0.54713427E-01  0.21794201E+00  0.80440141E+00
  0.13540155E+00  0.62018833E-01  0.87216412E+00
  0.62004799E-01  0.43506429E+00  0.98143244E+00
  0.22094053E+00  0.36160447E+00  0.79191023E-01
  0.22613440E+00  0.60314158E+00  0.18573165E+00
  0.25285469E+00  0.52569860E+00  0.81760291E-02
  0.57972200E-01  0.58589906E+00  0.94734606E-01
  0.14323329E+00  0.37715651E+00  0.23282751E+00
  0.45430249E-01  0.46510777E+00  0.29485192E+00
  0.30425280E+00  0.42213477E+00  0.43763751E+00
  0.16718750E+00  0.56338735E+00  0.52180447E+00
  0.23702130E+00  0.53134098E+00  0.36215545E+00
  0.11999388E+00  0.64443369E+00  0.39202868E+00
  0.10255983E+00  0.36971846E+00  0.53006382E+00
  0.48303114E-01  0.47837765E+00  0.63232428E+00
  0.24549492E+00  0.39571600E+00  0.76069537E+00
  0.19543177E+00  0.58349516E+00  0.86246082E+00
  0.25375956E+00  0.54135088E+00  0.65158583E+00
  0.70437197E-01  0.59314133E+00  0.77125540E+00
  0.20848589E+00  0.40057092E+00  0.90648528E+00
  0.12962187E+00  0.86278211E+00  0.26117562E-01
  0.23654024E+00  0.71688549E+00  0.73319149E-01
  0.20953198E+00  0.89305958E+00  0.19872892E+00
  0.31438842E+00  0.89248228E+00  0.98305912E+00
  0.70378098E-01  0.96332537E+00  0.11474858E+00
  0.15939296E+00  0.71378989E+00  0.22770477E+00
  0.83503857E-01  0.79407781E+00  0.36637321E+00
  0.29556761E+00  0.75032029E+00  0.46891533E+00
  0.18416509E+00  0.93672523E+00  0.55683433E+00
  0.27247508E+00  0.85062757E+00  0.35387051E+00
  0.12401889E+00  0.97067455E+00  0.41505508E+00
  0.15121507E+00  0.73312606E+00  0.54934366E+00
  0.60363337E-01  0.75966722E+00  0.65570918E+00
  0.22921315E+00  0.74244842E+00  0.77058615E+00
  0.19693790E+00  0.90885872E+00  0.87305231E+00
  0.28751186E+00  0.86542342E+00  0.63291076E+00
  0.88632634E-01  0.90901152E+00  0.76857562E+00
  0.14144105E+00  0.70681826E+00  0.91335367E+00
  0.43069369E+00  0.15914789E+00  0.99222696E+00
  0.59403674E+00  0.69444489E-01  0.86824383E-01
  0.53593314E+00  0.27856599E+00  0.23561595E+00
  0.62798555E+00  0.24576308E+00  0.97482326E+00