(Si O2)81  (P1) ~ 3x3x3Supersel (VASP)  
   1.00000000000000     
    14.9916000000000000    0.0000000000000000    0.0000000000000000
    -7.4957993700000003   12.9831068100000007    0.0000000000000000
     0.0000006000000000    0.0000010400000000   16.3712997000000016
   O    Si
   162    81
Direct
  0.0499750545169783  0.1078651774581109  0.0069954293508306
  0.2841587296452635  0.0899732395864965  0.1091472223779953
  0.2230507328739118  0.2563965730101074  0.2322405243004129
  0.2306815860550351  0.1827390964342831  0.0343085418811461
  0.0684083224827450  0.2035543200067102  0.1293765076944942
  0.1655381134055183  0.0296466948893388  0.2662610706615210
  0.0629319906464857  0.1303436394531213  0.3181104138373424
  0.2941249285642916  0.0730785389710084  0.4698499561069154
  0.2005804533374086  0.2602164106278047  0.5436319244635310
  0.2217317047801145  0.1701975888281815  0.3797230050709428
  0.0981153738678636  0.2602400164395992  0.4388290307330849
  0.1352630137436564  0.0882995157043257  0.5465613710543438
  0.0338003903572902  0.1507883746969834  0.6573530511970427
  0.2840643952086811  0.0381438562204368  0.7639237107585295
  0.1944028091291809  0.2334382374511042  0.8851629857021365
  0.2182823388617911  0.1576148806292429  0.6849726630145212
  0.0542526215536803  0.2175342726029991  0.8045321761700054
  0.1351089703197421  0.0622433097329917  0.8720319561129058
  0.0624527751291561  0.4341864987125708  0.9816477442289613
  0.2201690896399446  0.3612202216398544  0.0787036265769257
  0.2263564862276774  0.6035047272209466  0.1854959464568969
  0.2516165552450376  0.5250003789646256  0.0079942713882721
  0.0578753131784384  0.5860057935739674  0.0952715783530231
  0.1422574879354325  0.3775374549023689  0.2330622775842488
  0.0456321325567762  0.4652615774625217  0.2934668029199700
  0.3042729198541075  0.4224160067026219  0.4371177010954180
  0.1666549484935666  0.5631297660974581  0.5216553408375565
  0.2372626440649296  0.5314544490716915  0.3621097101310063
  0.1196661484149958  0.6438035422359459  0.3911405294056592
  0.1032680151834910  0.3702667034467272  0.5310507296689454
  0.0489942394536882  0.4778270058643025  0.6314214218102154
  0.2451694009675015  0.3965823182052891  0.7604808353303787
  0.1961924127971506  0.5834376056297464  0.8628315877576631
  0.2540607464982843  0.5416702458795555  0.6518300818685351
  0.0709457038187865  0.5932025155417493  0.7711792943692194
  0.2078727729149799  0.4010296126781874  0.9064250417107076
  0.1297342889593588  0.8629072777023608  0.0261559375286389
  0.2357193263729535  0.7157802054446581  0.0731288480847483
  0.2097736874063817  0.8933763606110827  0.1979735029709056
  0.3145615491279335  0.8922078205963083  0.9821266276593957
  0.0702552878679001  0.9629470395653064  0.1147179104988526
  0.1597226476611499  0.7146094130509376  0.2268851023875629
  0.0834230374815446  0.7943368671967417  0.3666553109525608
  0.2951051682438205  0.7506908898703786  0.4691912525720447
  0.1837939723807677  0.9363608788393313  0.5571040210889933
  0.2717542818056803  0.8493539686205024  0.3534794646837596
  0.1244385549724733  0.9711005226066924  0.4147499050007183
  0.1514879970258909  0.7344818276592840  0.5492810532723439
  0.0604697207602419  0.7594890111265150  0.6564167564320745
  0.2292700111843101  0.7426766216064018  0.7713190817330772
  0.1973721131944310  0.9094358723301997  0.8726609379887096
  0.2869945951237856  0.8649858364902965  0.6333735612040948
  0.0884477316944870  0.9095127317229116  0.7679265698590541
  0.1417610847823991  0.7068381538894483  0.9135000457149868
  0.4309063387492138  0.1591199078236860  0.9917558837439718
  0.5937754800640250  0.0690787983975373  0.0880125760918648
  0.5355235374700984  0.2778094525181635  0.2351246834481496
  0.6274914455120771  0.2463124712602094  0.9748801720199074
  0.4273672823998004  0.2843506979799454  0.0966140735813912
  0.4829531923207750  0.0752015236912813  0.2268001194272559
  0.3698916772233050  0.1470642890689972  0.3295920574334821
  0.6472742798382757  0.0965668142836923  0.4913200893328085
  0.5463395121296419  0.2503558555959523  0.5083964413701634
  0.5820042516305707  0.1760308269555610  0.3394679615532986
  0.4020022804047118  0.3042741072472073  0.4261765093523353
  0.4743757898383053  0.0775279441835861  0.5774727339914081
  0.4002667061455856  0.1650725841223057  0.6453693368248167
  0.6137404609937526  0.0699362541877528  0.8063419987186902
  0.5210445264357147  0.2756702720652047  0.8673722836171631
  0.5653023700652660  0.1738227173631529  0.6837690401893708
  0.3905654250677829  0.2813418844888457  0.7845335896413385
  0.4465385670064629  0.0414610782117516  0.8764684062883961
  0.4216825059754022  0.5133561368849833  0.0245263801964528
  0.6439544989287173  0.4421665833652594  0.1343176977917968
  0.5496290337621885  0.6019080997756068  0.2308196041959941
  0.6040637138451979  0.5651962108476747  0.9979697883321887
  0.3960246327482638  0.5988571639891517  0.1279060619827689
  0.5115967931166776  0.4201168421256606  0.2379930668999678
  0.3640141894107502  0.4962538646794722  0.2795525122207249
  0.5895962290582903  0.4324776456480505  0.4491436282652485
  0.5405296740445139  0.5723582710233150  0.5094503412973057
  0.5690875162266114  0.5286876906255724  0.3781250917607944
  0.4083672557328104  0.6157134406385472  0.4470921733036523
  0.5134882509672961  0.3772467041212004  0.5798927083098051
  0.4236726326060095  0.4975906039789588  0.6732579386748203
  0.5913870842915230  0.4559414521404775  0.8203216743587981
  0.4320907115503799  0.5672273956013372  0.8759215347246074
  0.6147597604099404  0.5728211884895270  0.6822834953063517
  0.3660448670541958  0.6200852327468807  0.7452675183858701
  0.4447546405546279  0.3934364709334708  0.9207377661777082
  0.4635572895419083  0.8455974592194649  0.0376878963182148
  0.5700660534671401  0.7075300727441277  0.1213522091108499
  0.5648954587397335  0.9768458444276920  0.2311167065482108
  0.5658898427844548  0.7555481218062382  0.9707177364047943
  0.4120537746553058  0.9434512067901466  0.1246935629526863
  0.4717537103962754  0.7773667393959486  0.2057368281003919
  0.4170966957977743  0.8337466791228881  0.3271134632770990
  0.5945433438131482  0.7637170058372598  0.4581866481502589
  0.5817739584619782  0.9507677496278453  0.5637142723145214
  0.5919530910651608  0.8417755303422199  0.3144683112719949
  0.4357917803321419  0.9370379502319102  0.4542256918837421
  0.5077516323987069  0.7401249641246475  0.5736830706042084
  0.3634237804937786  0.7545763876182482  0.6522094185533939
  0.5640030945011442  0.6993755712657602  0.7665968773812659
  0.5648776340351889  0.9290901204187058  0.8913075919796922
  0.5738631674382151  0.8564447020872475  0.7133395037978222
  0.4173879950554890  0.9069374575695549  0.7660652448525259
  0.4316942585035782  0.7501309695449713  0.8864050879604214
  0.7860997076480133  0.1877553029604870  0.0700904896831420
  0.8795553525796581  0.0772609584832212  0.0668858818443810
  0.8396663252607797  0.2740659103661324  0.2718948633707680
  0.9935722985354558  0.2596738129256459  0.9988993198228325
  0.6726300916375866  0.2532396601646031  0.1498413802098142
  0.7663331289334886  0.0757078989789378  0.1933094117992706
  0.7244355460973850  0.1005375790069178  0.3483943185073644
  0.9506525916950873  0.0441360374309908  0.4346092080371455
  0.8063163724242103  0.2397998053738843  0.5057437174785576
  0.9206865540172194  0.1800064666710730  0.3367736130163926
  0.7299784433132275  0.3044629569574607  0.4050887335522733
  0.8751717829140240  0.1227905765341618  0.5670501614645765
  0.6959323454457002  0.1280236342023359  0.6383420348256564
  0.8829090526225197  0.0705474734603218  0.7635495515496288
  0.8488940529308686  0.2368517294706156  0.8815325905242221
  0.8949083997542253  0.2481648634041091  0.6772663580592203
  0.7291240314681481  0.2578939189085987  0.7752776462560791
  0.8048245210116266  0.0470701532470840  0.9609530245432161
  0.7087539359825135  0.4663970999962415  0.9834817123560837
  0.9111850119529192  0.4071065958011782  0.1181569513856550
  0.8582911618898430  0.6051966711249656  0.2465075151787451
  0.9211009647568839  0.4905078672520183  0.9771474871829317
  0.7666266692178431  0.6279907887922705  0.0956142648257939
  0.8116651509480854  0.4155652507772211  0.2085141699347718
  0.7258561260135293  0.4537805909242776  0.3468520988771644
  0.9735620494720507  0.4272536926203038  0.4478042141332331
  0.8361319082081535  0.6116366355097569  0.5712594522574342
  0.9105224252149925  0.5091659541809563  0.3493773016053430
  0.7558896429655445  0.6128020037737750  0.4415824329037433
  0.8104372686970327  0.4224559830845073  0.5217868927395787
  0.6842440487341601  0.4365008273787432  0.6527571937059755
  0.9495737476443338  0.3966884165800003  0.7873777621277859
  0.8472107048059470  0.6057205960379510  0.9059561694512446
  0.8898065778002247  0.4944880060722319  0.6878657032622336
  0.7627713942744431  0.6070300122173073  0.7424947921105097
  0.7923903086577291  0.3610198321225944  0.9127334182537317
  0.7289559054739980  0.7545405197833496  0.9885661991185176
  0.9617246417545786  0.7969080911997467  0.1282687214345506
  0.8212118708178744  0.8896547387921669  0.1960310881618579
  0.9255819798674119  0.8280471994424735  0.9811616759845307
  0.6769876622399118  0.8787961408829349  0.0810405189752140
  0.8177734598569104  0.7530487581438099  0.2312017637323411
  0.7701535234017011  0.8535890149388073  0.3487611562195844
  0.9336750006699918  0.7768176888002499  0.4490451409514930
  0.8569603292919911  0.9541800107007908  0.5908115077111245
  0.9344005695028363  0.8773266624960125  0.3421641688862931
  0.7266101833078811  0.9636667742492185  0.4696598033272441
  0.7995593090519439  0.7777383301118068  0.5616645005223826
  0.7215472013998293  0.8120657595611460  0.6946725053933301
  0.9680987310028217  0.7161506526643393  0.7869043700036226
  0.8592570933060715  0.9110438096701474  0.8792998485763506
  0.9186553594792172  0.8397144318818089  0.6766758437876654
  0.7332126500417652  0.8994059054241571  0.8162110088185822
  0.7739765899178108  0.7105276799615320  0.8578139748300991
  0.1743140549295180  0.9906229503715193  0.1689994671449246
  0.1695786270101845  0.1479199141604527  0.2829622027857846
  0.9949864799402858  0.1552815482344399  0.0540596683171932
  0.1835582117600945  0.0136935468911695  0.5025505657035727
  0.1419474446913332  0.1713685029129797  0.6188271050759616
  0.0044022293781369  0.1583895587910580  0.3857527936083462
  0.1712189818530567  0.9862086104266954  0.8151248069014350
  0.1640857494993452  0.1382414120602015  0.9463971141264952
  0.9744939503280290  0.1929537493962853  0.7250964327550665
  0.1725904809854448  0.2968378505250200  0.1720866697791422
  0.1625429164614509  0.4939610951478917  0.2587003103422886
  0.9924288328388613  0.4690993516213535  0.0467998530038021
  0.1783966829695986  0.3415233438960758  0.4850439721294432
  0.1514274370490482  0.4883157986788503  0.5874049170603800
  0.0083219182739947  0.5060040483544165  0.3618769725724948
  0.1704006563938704  0.3072871058131814  0.8336767957943907
  0.1812203150943086  0.4872526670285380  0.9328529059076853
  0.9921544087510250  0.4810588101944855  0.7222830779034907
  0.1717042226350870  0.6568370426009978  0.1523574608317259
  0.1878676100467753  0.8246808206336589  0.2851141617435777
  0.0132908563594879  0.8610154069259979  0.0503309548252287
  0.1668761528087829  0.6625272408016168  0.4809676595695133
  0.1686451358586881  0.8260117462123402  0.6081145821398406
  0.0216489584204268  0.8600136627812986  0.4036513676810379
  0.1639442157922750  0.6573295652425302  0.8273993450388127
  0.1888852386570200  0.8344477155103849  0.9412940598692424
  0.9997504695244303  0.8147539835133676  0.7192470178301407
  0.5245379620295681  0.0259486658203596  0.1630791842044936
  0.4821558081964790  0.1594230364334644  0.2851647853380576
  0.3441627929418807  0.1812883852178011  0.0454967132899610
  0.5246069118862245  0.0252032494328336  0.5131620100105422
  0.5249217390029339  0.2032447588081388  0.6004600094643152
  0.3428061335138527  0.1813482847034597  0.3989339913489613
  0.5066268778198453  0.9771060794698195  0.8461314026856208
  0.5117628565776209  0.1817467569399209  0.9144245820278644
  0.3321820261591024  0.1602708405193461  0.7182495260230575
  0.5162459247004720  0.3502619831066487  0.1647610216143104
  0.5040160235928424  0.5059149725950354  0.2919685493513573
  0.3236656888268502  0.4890177848597112  0.0666546936328506
  0.5088586074574489  0.3376901187603503  0.4884341275429068
  0.5065205492553410  0.4958250646777781  0.6160319783816425
  0.3074514714388635  0.4838754164804531  0.3713177943769899
  0.4844396835596657  0.3639825984069195  0.8453119664695569
  0.4895500473048386  0.4908110699453142  0.9669966254040173
  0.3320878367067102  0.5106417303002142  0.7107771222428638
  0.4883267767278682  0.6744483295338701  0.1876131581533700
  0.5094500335456176  0.8659329056801935  0.2658057430526072
  0.3551695338922134  0.8568711955211198  0.0531378162380604
  0.5147613214149447  0.6673961558207095  0.5097484392571517
  0.4983251140458366  0.8203278227004960  0.6284696023713717
  0.3593338435722940  0.8416105204730576  0.4101502792378768
  0.4609485398615511  0.6760723524077147  0.8163096859327116
  0.4940305549336132  0.8156347750845403  0.9580419652534424
  0.3294723803712409  0.8099456874181441  0.7083634340566399
  0.7722461015215718  0.9639199565568074  0.1632748860446293
  0.8230613556156513  0.1538530741174832  0.2830967257605378
  0.6903456072330123  0.2021842566330627  0.0597221956829701
  0.8573419725668124  0.0237183269628664  0.5115549900960853
  0.8106718552366017  0.1880222704037105  0.5890295494338481
  0.6753538081925152  0.1719746836531415  0.3976689293165305
  0.8191362627640867  0.9966304109727370  0.8651803296796252
  0.8585941174309993  0.1886269278479602  0.9778225883082587
  0.6475327464543681  0.1491130756288814  0.7303284122908215
  0.8146914428852555  0.3234350891873845  0.1771142383750026
  0.8232782430206573  0.4839513677294062  0.2860990896840476
  0.6799616498093478  0.5153886356168471  0.0606104195247925
  0.8413621506555431  0.3557550703823679  0.4631289913272994
  0.8260580674297752  0.4988729025276384  0.5979543478918522
  0.6732603555208898  0.5123271898087775  0.3966958216372145
  0.8344053331262377  0.3132371889015958  0.8347904389303826
  0.8140414473058312  0.4778279236683902  0.9204699226431379
  0.6652980365053711  0.5090900510357321  0.7189742414813159
  0.8593135676901326  0.6987482774150701  0.1622872986276126
  0.8343218574714457  0.8426343282496500  0.2844534974544249
  0.6560679277424514  0.7813979396794289  0.0391495503220786
  0.8282985908202815  0.6939728579459480  0.5038083065267057
  0.8139997712696014  0.8482927129120145  0.6379517893831876
  0.6634457935336479  0.8434664904097475  0.3917672344529657
  0.8404742335193908  0.6558295337938258  0.8225364767886502
  0.8261497886732515  0.7976200202817878  0.9215641212807648
  0.6441747896916135  0.8198412015899189  0.7673858253974235
 
  0.27353599E-01 -0.34166356E-02 -0.15184008E-01
