(Si O2)81  (P1) ~ 3x3x3Supersel (VASP)  
   1.00000000000000     
    14.9916000000000000    0.0000000000000000    0.0000000000000000
    -7.4957993700000003   12.9831068100000007    0.0000000000000000
     0.0000006000000000    0.0000010400000000   16.3712997000000016
   O    Si
   162    81
Direct
  0.0476384620416248  0.1294166142984928  0.0137064046284376
  0.2443189884813944  0.0536142062176914  0.1007615344553172
  0.2097943732399095  0.2299447312720689  0.1749506068711599
  0.2519944028238956  0.1788379992350107  0.9711478409862344
  0.1008673314614111  0.2958202606959244  0.1280270038077067
  0.1534375805583323  0.0506694493161971  0.2247987842119247
  0.0663954145655866  0.1679346357377184  0.2976913543482719
  0.2693148929656472  0.0581604973805406  0.4456861168525733
  0.1674008694285533  0.2289670694664876  0.5592693013778560
  0.2712625198005497  0.1995589451148302  0.3281323013054293
  0.0591803862859998  0.2807245937703869  0.4290657582603774
  0.1061041097062689  0.0227751060781153  0.5840136032990774
  0.0253953471617074  0.1089347226521008  0.6862263493362690
  0.1813415188214718  0.0587836719382896  0.7537330803569445
  0.1344565400393699  0.2360563559451147  0.8673310763329026
  0.2325237768014548  0.1980868422193874  0.6660803312907101
  0.0980491870131345  0.2833437241973775  0.7297021583296762
  0.0948315598217412  0.0411276211206827  0.8922373173775552
  0.0475367548939097  0.4942516922583365  0.9603972540454040
  0.3122161511313886  0.4297880035844854  0.1407904398541793
  0.2320219782107336  0.6057331597720077  0.1883522986047926
  0.2429288681272812  0.5009539863953067  0.0092559810143579
  0.0674031318557609  0.5924568212852023  0.1107084441152247
  0.1665564195446543  0.3955320510197869  0.2609242130612620
  0.0765384316293235  0.4940858357761672  0.2998797614347311
  0.2537399826938125  0.4197353941434939  0.4512173968744206
  0.1606374749785327  0.5580884180573457  0.5694456915167945
  0.2787046140275498  0.5735296458873160  0.3305683548916747
  0.1289149150906507  0.6248842461160461  0.4130742036614094
  0.1363235992091765  0.3876699186778877  0.5712539929205530
  0.1043262825900225  0.4550244845316456  0.7159940121704066
  0.2694094352362350  0.4219367998737455  0.7874753758100937
  0.2246955139370556  0.6054703490377988  0.8824367316313326
  0.2947360955773280  0.5417278082586098  0.6621822908471934
  0.1003582184746234  0.6428665096601826  0.7578047779725409
  0.1435269784007207  0.4065831747103444  0.8851809918896796
  0.0660591261663563  0.8084875194907936  0.0007632988105227
  0.2504397850529831  0.7313121723930318  0.0827853339275142
  0.1203644727176786  0.8343692008668130  0.1969039312794562
  0.2797295582078642  0.8908053716053499  0.9915465962489062
  0.0421907101294021  0.9291103117775307  0.1114668878641023
  0.1502986259133189  0.7200987902644594  0.2420506142247648
  0.0614823247904980  0.7833921859029908  0.3580732962174578
  0.2798393613270519  0.7507400443037271  0.4369841205076285
  0.1859526112845588  0.9325207957282082  0.5504255642340720
  0.2629597360521290  0.8717967381183418  0.3510557468677826
  0.0829002802482180  0.9598309545232079  0.4270443627004512
  0.2005321233998650  0.7695174804741475  0.5462035648423867
  0.0775825049226868  0.7956170692038405  0.6644922841925617
  0.3204114123844130  0.7754317079234422  0.8163108118083335
  0.2340397905660097  0.9705958784229561  0.8831562850986386
  0.2551846523809180  0.8809873551735543  0.6879376217783140
  0.0487707204176026  0.8599972630783228  0.7972161664623504
  0.1441023035049841  0.7203641774697488  0.8978864015337826
  0.4204678629323246  0.1372235161548013  0.0122543938225280
  0.5980845023415994  0.0780196090804947  0.1176384055261046
  0.5181229460815141  0.2915751857845599  0.2580524284019972
  0.6276605643286174  0.2415044334736263  0.9785129419577674
  0.3781712345544545  0.2083864444645099  0.1387115799633219
  0.4560251850132418  0.0855800029210654  0.1956161018672850
  0.3954895986578094  0.1284861643155571  0.3020381202066920
  0.6408064394417139  0.1229193919745890  0.4706210657529979
  0.5612114280173255  0.2407589855351308  0.5648933780637631
  0.5869578466922747  0.2044582094637680  0.3301921463619820
  0.4254539854072787  0.2487734044380467  0.4498232708018922
  0.4779956918728863  0.0470187962520500  0.5918066127080627
  0.3678316859294413  0.1342709180885271  0.6478294593977887
  0.6485793787579592  0.0767225871147812  0.7978856549123384
  0.5076794151632273  0.2501796619352701  0.8762936366153734
  0.5768546970805140  0.1911424127938315  0.7234644969848214
  0.3482415397762009  0.2102998063153692  0.8076430610346277
  0.5062638081825959  0.0806931579904250  0.9130148758894832
  0.3348147035535004  0.4081728797558859  0.9946409331806787
  0.6110827568385107  0.3702647803575673  0.1007158137770893
  0.5100865755316127  0.5698847052492590  0.1793186352141302
  0.5397290014137044  0.4648927953379960  0.0025125291271323
  0.4216456829724088  0.6216908147612877  0.0620110674550863
  0.4638921153115548  0.4021799083407492  0.2068070320150678
  0.3849671806409071  0.4763733663462691  0.3131888335028271
  0.5596048612590825  0.4351858494720990  0.4648290638480896
  0.4764272937166971  0.5707438007513979  0.5696213070992728
  0.5805945225281287  0.5137610448933173  0.3317539966522419
  0.4444067573588146  0.6060872970886230  0.4302945140709932
  0.4422445075615498  0.3711300952035834  0.5680798283790830
  0.4071484169306976  0.4408034139402044  0.6874862167314859
  0.5600772706390692  0.3432764622014431  0.7409277902190111
  0.4713608066080847  0.5858840264256794  0.9344619223178461
  0.6028189378003690  0.5210759923525131  0.6588526659961884
  0.4016188901427242  0.6138975031224088  0.7932621281093319
  0.4375994783678016  0.3800183619867695  0.8865359969660086
  0.4140878439952495  0.8295165918786072  0.9916295770944643
  0.6170681794136115  0.7473868598666105  0.0944393668832194
  0.5439434650047338  0.9378686377148248  0.2400268743446808
  0.6036113938163582  0.8895894249027040  0.9972206946113390
  0.3933304746703968  0.9089096619114664  0.1282530714515326
  0.5221334366285175  0.7475402633313672  0.2187099791080534
  0.4244457445060802  0.7920435766169217  0.3570755883119990
  0.6363065362346320  0.7456596858949195  0.4954999553617780
  0.5617797647787041  0.9376217812465676  0.5364336166191320
  0.6293906515740920  0.8557980224642875  0.3719099090754356
  0.4324861681185111  0.9878858769595358  0.4454940019012064
  0.4905566391407917  0.7574280214261407  0.5273470797765208
  0.4219199668105312  0.8450586938137035  0.6451904950637460
  0.6274837605546322  0.7167470731403196  0.8228674032634862
  0.4989491237441683  0.9193247429712436  0.8606406935906893
  0.6072130487905183  0.8355817696901078  0.6876225987352383
  0.4629294941807777  0.9881726158970426  0.7559053319038408
  0.5344917933081030  0.7874261860675114  0.8877813776150095
  0.7306265359426743  0.1374298801183478  0.0096909345821176
  0.9434894840968088  0.1041829761467699  0.1570775295815494
  0.8453806305741680  0.2538290049047246  0.2285042747920887
  0.9176153759026060  0.1972490184502391  0.0251218826235754
  0.7379553540566011  0.3053965954526001  0.0984189792119833
  0.7601790271471683  0.0023662181152612  0.2061023718432202
  0.6891890555235939  0.1028668201389502  0.3206599633249802
  0.9478484832869120  0.0687120946771573  0.4272281916751003
  0.8838523938394452  0.3011259311702966  0.5098788522882300
  0.9155296315231859  0.1651668063582769  0.3134991736291022
  0.7788644236122135  0.3077086797576928  0.3830631221817023
  0.7905110934636299  0.0971097880254340  0.4972676075146636
  0.7202459572462233  0.1741208048115272  0.6289765667491144
  0.8810144180384416  0.1157685910397418  0.7587962852609512
  0.8983684868654166  0.2997361209390604  0.9196753957930927
  0.9135656681209493  0.1930185220475978  0.6163051838637447
  0.7662621397864061  0.2947463209093972  0.7874180314538362
  0.8678182183881550  0.1054866641713792  0.9097913423074064
  0.6918196206959939  0.4436465398881771  0.9906822102662745
  0.9437276744930834  0.4126195820655777  0.1512781544162681
  0.8388895795277650  0.5870960545703551  0.2112197995915336
  0.9079354830071291  0.5351871665771012  0.0471694853951749
  0.7061402577468969  0.5568441722800586  0.1047853392758064
  0.7666032863073189  0.3796417154367252  0.2421235477751645
  0.7851421695437726  0.5441336521473644  0.3765732663974218
  0.9678318603134943  0.4391706308906209  0.4418543790384910
  0.8458681773107695  0.6254631948156947  0.6006095769525885
  0.9236724367853093  0.5317342866417122  0.3135412689866994
  0.7144608877008395  0.6192993621056130  0.4619100052056226
  0.8235944841807570  0.4494034964273576  0.5208458007629612
  0.7450785208994338  0.4227106678472140  0.6786757833162281
  0.9802555607325655  0.4385842543809118  0.8043243527478717
  0.7970647605489454  0.6103070920237152  0.9362081052862471
  0.9074327241216882  0.4353508187503387  0.6539954897602801
  0.7299087638826161  0.5722415600723370  0.7600618451346455
  0.8254522199634839  0.4333634351993668  0.9028875635219836
  0.7192926233119452  0.8071024511655082  0.9471092718012046
  0.8939076134706470  0.7572863572374215  0.0840616696779760
  0.8372384048735203  0.8891687791899129  0.2569935908993409
  0.9529249503509380  0.8687325388802034  0.9674661270401794
  0.7930248779103862  0.9186950356822368  0.0679411765507398
  0.7562164813499979  0.7264076348771468  0.1887767017212222
  0.7163080762214136  0.7696242499648808  0.3418779858426388
  0.9554344345353036  0.7523379210678236  0.4805207905806897
  0.9008018902814920  0.9686785796712539  0.5809345625890301
  0.8830116809218267  0.7816036569618752  0.3379910311830079
  0.7653095242899460  0.9221512689677782  0.4459450315206354
  0.7957483353625784  0.7610277487052441  0.5559035918804821
  0.7488483422350282  0.8195525778802322  0.6911447800128518
  0.9063374013315506  0.6357848249454512  0.7489826594955818
  0.8373631469236074  0.9295068936895748  0.8841308186401161
  0.9259148773750276  0.8205172131398957  0.6815564352877825
  0.7183274859965014  0.9408726890986017  0.7842548385572586
  0.8243541216078287  0.7481936313833026  0.8400016487196028
  0.1447319571292446  0.9565812357083223  0.1702380133686935
  0.1569221152955042  0.1541124790317374  0.2604640726635166
  0.0082222517602375  0.1864242050491956  0.0807331431611944
  0.1605983311197564  0.0026985391481802  0.4963289056861233
  0.1252927324515396  0.1284386591349641  0.6232183278231513
  0.0061691858720928  0.1739023245836537  0.3724362428965112
  0.1454561275713453  0.9788034539753178  0.8356552038073634
  0.1356107138111005  0.1404789529436871  0.9487381725941431
  0.9826412637846990  0.1759366520027226  0.7020451461784404
  0.2010452585651791  0.3391992628104487  0.1920502502405275
  0.1995572689290855  0.5106563517077306  0.2551540802422786
  0.9870924007060639  0.4884583367082468  0.0623398067467165
  0.1440787874734175  0.3216993573837070  0.4964960386027629
  0.1716261722700292  0.4812753620315902  0.6315014487480871
  0.0225825194364813  0.5187293611425483  0.3705760693589859
  0.1610170548156658  0.3453761872083873  0.8155485037828313
  0.1613494986104454  0.5019702045851844  0.9410762257116557
  0.0048423352861330  0.4856508038137852  0.7163858678067440
  0.1790371560931786  0.6736086888216017  0.1611271066832250
  0.1569504792117126  0.8195581060697673  0.2957216397161941
  0.9932089738358877  0.8503147340104960  0.0464402174665824
  0.1927606841081888  0.6632217203446293  0.5011441118798236
  0.1640968887642580  0.8249562629200059  0.6031232164220782
  0.9937896289038576  0.8321451827060623  0.3944565696398272
  0.2047334652870765  0.6927755805983430  0.8357604478541912
  0.1728355684452751  0.8373592888818392  0.9321656547712459
  0.0007617777147795  0.7737604717110228  0.7245986290387911
  0.4959186732830315  0.9986884878817694  0.1682332621341935
  0.4995443499910755  0.1697662380991098  0.2741404302082188
  0.3249199764134849  0.1687171703133702  0.0535522988738332
  0.5345919697479551  0.0272919735889978  0.5098414618126377
  0.5003433444926557  0.1584695278760321  0.6401010980016165
  0.3438658694114193  0.1696011047926563  0.3851084309414411
  0.5334650355310081  0.0396586820217460  0.8303325178811770
  0.4969925387510316  0.1737858327271303  0.9344736671213398
  0.2886420672738661  0.1377266484300212  0.7170924610201485
  0.5052166239841818  0.3230159136045101  0.1677325951960165
  0.4744697605261582  0.4971284704770781  0.2543675491080012
  0.3322614484437822  0.5006594340541844  0.0594705139977497
  0.5126298623726039  0.3322811613373454  0.5032315754338180
  0.4946570173370957  0.4770771409965563  0.6230014261458136
  0.3464009481164195  0.5138172451990282  0.3906729647756212
  0.4461445424019055  0.3194690317157423  0.8103195042399401
  0.4516167055395240  0.4631444018165705  0.9565546179993069
  0.3587963037616178  0.5144110984491059  0.7229198924978011
  0.5184887175365961  0.6770977031980403  0.1337891736334635
  0.5456546060877341  0.8427578080269950  0.2933463201644472
  0.3355754012861242  0.8324030364632125  0.0467760794003603
  0.5176698181540401  0.6710801946424577  0.5062956787655247
  0.5176600071986674  0.8287749732253252  0.6153882232136374
  0.3765183086897604  0.8679116645508932  0.3967505710339111
  0.4978366677321753  0.6862574393935424  0.8549229336106841
  0.5064839797166611  0.8703084155202763  0.9312453983418786
  0.3595338297882091  0.8796049255570829  0.7454741964956285
  0.8419978785977595  0.9657716375714844  0.1598978945802914
  0.7986436113072806  0.1366529057047665  0.2544813412602167
  0.6552302848528210  0.1889959287897138  0.0536175800318477
  0.8589184141682963  0.0151949086544679  0.5044559751624488
  0.8213910629385786  0.1942194889068571  0.5696020358545792
  0.6794531296381905  0.1982571576375469  0.3811956193558249
  0.8248616181980797  0.0248964461791035  0.8333844601849336
  0.8261609091989830  0.1681918024336706  0.9617500669925593
  0.6913184515602598  0.1997441307098081  0.7417016665538787
  0.8185442287073972  0.3443255515680220  0.1777752040824493
  0.8168592560165282  0.4902686708781245  0.2840272551547453
  0.6268514677498807  0.4634115701454425  0.0510702059413715
  0.8519296911813873  0.3683610152091227  0.4642357938052458
  0.8417591855563112  0.4954688268183822  0.6172126786951980
  0.6574416612335965  0.5122136469575292  0.4029784097985931
  0.8659201922244322  0.3667534167431296  0.8619014209660373
  0.8228038488341921  0.5197524102604112  0.9756798962119408
  0.6570378168050600  0.4576243965524868  0.7083140928220384
  0.7956112386693762  0.6616076937646852  0.1480796173638866
  0.7946651344792037  0.7791953516719959  0.2800730234620870
  0.6883731934008617  0.8578140341806729  0.0254388626599760
  0.8297396434762697  0.6812109558591680  0.5153712014978217
  0.8438214611931634  0.8433458043020962  0.6457227097059549
  0.6898263524944430  0.8159482851500013  0.4226830831913522
  0.8318225339275838  0.6478941579711450  0.8186459894557993
  0.8412677930792403  0.8235122901242308  0.9256948969897698
  0.6625133218801151  0.8139775999792824  0.7589546347267948
 
 -0.12718978E-01  0.24331802E-02 -0.49050110E-02
  0.25649953E-02  0.63530699E-02  0.25424518E-01
 -0.88337532E-02 -0.12530138E-01  0.73347088E-03
  0.31400030E-03  0.63094596E-04  0.60521190E-02
 -0.10279369E-01 -0.54883517E-02  0.17034203E-01
 -0.15436282E-01 -0.24386641E-01 -0.73853887E-04
 -0.44675128E-02 -0.14221672E-01  0.15913013E-01
  0.65776934E-02 -0.94954183E-02  0.11197631E-01
 -0.87856666E-02 -0.47199935E-02 -0.98430608E-02
 -0.74788707E-03 -0.32659247E-02 -0.17599437E-01
  0.18587076E-02 -0.10249707E-01  0.26378510E-01
  0.12011996E-01 -0.10106680E-01 -0.13931362E-01
  0.11419104E-01  0.11202349E-01  0.99646534E-02
 -0.76117856E-02  0.90603740E-03  0.13678577E-01
  0.14659386E-02 -0.89160147E-02  0.82114102E-02
 -0.14675242E-01  0.21711724E-01 -0.11277556E-01
  0.80859874E-02 -0.28750790E-02 -0.24232167E-01
  0.10189784E-02 -0.13716846E-01 -0.78871166E-02
 -0.47109505E-02  0.18052381E-01  0.20299903E-01
  0.22756624E-02  0.19784877E-01  0.21034708E-01
  0.45166019E-02  0.14855040E-01  0.15791367E-02
  0.23023137E-02  0.14956283E-02  0.27103410E-02
  0.17344096E-01  0.26772314E-01  0.90884736E-05
  0.14343173E-01 -0.11430522E-01  0.11298936E-01
 -0.10062533E-01 -0.19581901E-01 -0.17914599E-01
  0.10038574E-01  0.22419399E-01  0.14310734E-01
  0.86660217E-02  0.68158932E-02  0.85377867E-02
 -0.14738189E-01 -0.17823871E-03  0.14528743E-01
  0.95183658E-02  0.22855656E-01  0.10133149E-01
 -0.30399206E-02 -0.11202770E-01  0.26964473E-03
  0.99716811E-02 -0.29259085E-01 -0.22484497E-02
 -0.20704268E-01  0.13961439E-01  0.78905884E-03
  0.16977023E-03  0.63756779E-02  0.46161196E-02
 -0.11599096E-01 -0.18815892E-01  0.16187835E-02
 -0.13446727E-01  0.93577112E-02  0.33106259E-01
 -0.10229780E-01  0.55526423E-03 -0.97424048E-02
  0.16548972E-01 -0.10904847E-02  0.29708019E-02
 -0.10719350E-01  0.24577903E-01  0.15810857E-01
 -0.18670450E-01  0.56826457E-02 -0.28755082E-03
  0.28247346E-02 -0.59813678E-02  0.88348633E-02
 -0.86534964E-02  0.15079571E-01  0.16297405E-01
 -0.65917738E-03  0.74592090E-02 -0.20070454E-01
  0.10821421E-01 -0.15457782E-01  0.12988616E-01
 -0.68406474E-05 -0.17571699E-01 -0.42402429E-02
  0.18326556E-01 -0.70190902E-02  0.14578051E-02
  0.13932153E-01 -0.98027784E-02 -0.17953980E-01
  0.20648351E-01 -0.66761868E-02  0.82783216E-02
  0.14777590E-02 -0.87668767E-02 -0.69229608E-03
 -0.15485022E-02 -0.94228179E-02 -0.19183224E-01
 -0.45627171E-02 -0.45978338E-02  0.10101781E-01
  0.82948910E-02  0.17027311E-01 -0.66044711E-02
  0.87253114E-02 -0.27558045E-01  0.19871381E-01
 -0.72358485E-02 -0.71730864E-03  0.34818430E-02
  0.10442538E-03  0.63270395E-02 -0.25425918E-01
 -0.40935954E-02 -0.56146874E-02 -0.38905857E-02
 -0.32763857E-01 -0.27539728E-01  0.12733822E-01
 -0.17354325E-02 -0.18555000E-01 -0.28107777E-01
 -0.18477076E-01  0.22199159E-01 -0.18548606E-02
  0.12040774E-03  0.30099499E-02  0.29432333E-01
  0.60851999E-03 -0.39727327E-02  0.45813982E-03
 -0.12461776E-02  0.77659082E-02 -0.17439499E-02
  0.33334932E-02  0.10216520E-01 -0.26014456E-01
  0.12943771E-01  0.12725664E-01  0.88100078E-02
  0.10701376E-01  0.19335772E-01 -0.52971306E-02
  0.12563368E-01 -0.44096233E-02 -0.82757088E-02
 -0.61613087E-02  0.12495312E-01  0.54979140E-02
  0.20818380E-01 -0.80343576E-03  0.37639672E-02
 -0.15049734E-01 -0.16343702E-01  0.76849248E-02
  0.30962996E-02  0.67880111E-02  0.57843157E-02
  0.29783213E-02  0.22902402E-02  0.82551744E-02
 -0.15061939E-01 -0.30206799E-02  0.29788537E-01
  0.79659920E-02 -0.69142176E-02  0.19105148E-01
 -0.32829068E-02 -0.17831415E-02  0.73426648E-02
  0.15982923E-01  0.88565433E-03 -0.29496592E-02
 -0.16419215E-01  0.82679691E-02 -0.16534397E-01
 -0.11399451E-01  0.61817070E-02  0.20184289E-01
  0.17724280E-02 -0.95115184E-02 -0.90813660E-02
 -0.32751092E-01 -0.13122248E-01  0.12196930E-01
 -0.51512533E-02 -0.24338214E-01 -0.12900893E-01
  0.24270152E-01  0.12115829E-01 -0.20260093E-01
  0.24620552E-01 -0.75561236E-02  0.23781829E-01
 -0.16232221E-01 -0.29704917E-01 -0.12666460E-01
  0.47767258E-02 -0.75693751E-02  0.85651481E-03
  0.22686008E-02 -0.44837247E-02 -0.13810991E-01
  0.56685618E-02 -0.15780591E-01 -0.11027278E-01
  0.16881603E-01  0.14164250E-01  0.71828962E-02
  0.16516713E-02  0.11578616E-01  0.15548630E-01
  0.38751601E-02  0.36413458E-01 -0.94722341E-03
  0.17388140E-01 -0.55034371E-02 -0.24663650E-01
 -0.14896392E-01  0.13151956E-01 -0.16449539E-01
  0.22629561E-01 -0.68887046E-02  0.53983158E-02
 -0.20772758E-01 -0.88833217E-02 -0.22081509E-01
  0.65035680E-03 -0.28157824E-01 -0.84894402E-03
  0.29946550E-01  0.21593717E-01 -0.25932241E-01
 -0.11361813E-02  0.67631255E-02  0.90934452E-02
  0.64593391E-03 -0.63811095E-02  0.26980192E-02
  0.12630969E-01  0.27538446E-01 -0.98221433E-02
 -0.27296877E-02 -0.39420594E-02  0.21707764E-02
 -0.11483285E-01  0.71105324E-02  0.24821728E-02
 -0.13458935E-02  0.59314904E-02 -0.38867435E-03
 -0.87695474E-02  0.21180537E-02  0.79468030E-02
 -0.56793913E-02 -0.95366670E-03 -0.21235616E-01
 -0.10927072E-01 -0.30245181E-01 -0.17369101E-01
 -0.11564907E-01  0.80438429E-02  0.14078632E-01
  0.59778533E-02 -0.20364852E-01 -0.17132398E-02
  0.88257853E-02  0.81123381E-02  0.11815397E-01
  0.16470843E-01 -0.20987987E-03  0.19995409E-01
  0.28760779E-02  0.40640655E-01  0.11612100E-01
  0.29846679E-01  0.63470558E-02 -0.37829223E-02
 -0.15169465E-01 -0.82773870E-02  0.14450301E-01
  0.55535201E-02  0.76594045E-02  0.11234725E-01
 -0.22692291E-01 -0.13002678E-01 -0.36516506E-02
  0.32072489E-01  0.92988282E-02 -0.22161810E-01
 -0.25793352E-01 -0.37978029E-02 -0.15943191E-01
  0.18791826E-01 -0.31395233E-02 -0.12076350E-01
 -0.98508003E-02  0.13263200E-01  0.51476174E-02
  0.14169999E-01  0.18899132E-02  0.64253787E-02
 -0.10206599E-01  0.11580999E-01 -0.21944374E-01
 -0.38623367E-02 -0.12315955E-01 -0.45058479E-02
  0.16545159E-01 -0.25717973E-01  0.22601914E-01
 -0.21520822E-01 -0.33490506E-01 -0.12493609E-02
  0.33445728E-02 -0.61278565E-02  0.16410422E-01
  0.80034001E-02 -0.24465842E-01 -0.79098286E-02
  0.30961088E-03  0.74925084E-02 -0.85077959E-02
 -0.14371104E-01  0.23945259E-01  0.23793789E-01
  0.95158721E-02 -0.90533607E-02  0.61630395E-02
  0.22078132E-01  0.89149209E-02 -0.35387751E-02
 -0.22827738E-01 -0.51069662E-02 -0.99241073E-03
 -0.11780884E-01  0.52775076E-02 -0.18412333E-01
  0.91667193E-02 -0.15070246E-01  0.18004091E-01
 -0.11422086E-01  0.11902242E-01 -0.13180253E-01
 -0.93760098E-03  0.73014792E-04  0.64002234E-02
 -0.14207628E-02  0.23073009E-01 -0.18756661E-01
  0.20542683E-01  0.36172982E-01  0.37518490E-02
 -0.78349767E-02 -0.62225955E-02  0.62921816E-03
 -0.83980708E-02 -0.83038892E-02 -0.15399353E-01
  0.81398679E-02 -0.82251934E-02 -0.14447974E-01
  0.15735921E-01  0.28649186E-01 -0.94068071E-02
  0.47700584E-02  0.52180617E-03  0.24094015E-02
  0.13663302E-01  0.24094410E-01 -0.26175888E-01
 -0.30770883E-01  0.60864528E-02  0.58157137E-02
  0.62445931E-02  0.45460706E-02  0.18141614E-01
 -0.16905733E-01 -0.25992107E-02 -0.11125584E-01
  0.86584546E-02  0.29889443E-02  0.68232284E-02
  0.11045659E-01 -0.19081430E-01  0.24880913E-02
 -0.86180611E-02 -0.17892446E-01 -0.16929396E-01
  0.13176846E-02  0.10335668E-01  0.56568446E-02
  0.88428240E-02  0.15696640E-01 -0.13756367E-01
 -0.46271934E-03 -0.79150579E-02  0.14086746E-01
 -0.85788116E-02  0.74002502E-02  0.22110830E-01
  0.25326832E-01  0.25005970E-01 -0.15685427E-01
 -0.49576810E-03 -0.19611706E-02  0.86721802E-02
 -0.20065330E-02  0.49717286E-02  0.19595617E-01
  0.18232748E-01  0.32667680E-01 -0.16278526E-01
  0.43473407E-03  0.16278983E-01  0.12287714E-01
  0.69408809E-02 -0.30533596E-02  0.60024846E-02
  0.15909271E-01 -0.14424288E-01 -0.32883933E-02
 -0.18024621E-02 -0.26047132E-02  0.12644968E-02
  0.50793516E-03 -0.58015384E-02  0.17158627E-01
  0.93068543E-02 -0.12646164E-01 -0.65707715E-02
 -0.55662857E-03 -0.17236929E-01 -0.31091186E-03
  0.35658992E-02  0.10007728E-02 -0.12898311E-02
  0.13370786E-01  0.11832538E-01  0.96216109E-02
  0.39657995E-02  0.55620639E-02 -0.76202429E-02
  0.49142227E-03  0.10868429E-02 -0.25353693E-01
  0.18150037E-01 -0.15278935E-01 -0.12945280E-01
 -0.70728359E-02 -0.13061723E-01 -0.15912267E-02
  0.86353297E-02  0.19972411E-02  0.65157021E-02
 -0.10643196E-01 -0.28247479E-02  0.13619169E-02
 -0.97807257E-02  0.26205451E-02  0.72570222E-02
  0.89128383E-02  0.15077867E-03  0.10489271E-01
 -0.10544152E-01 -0.25097300E-01 -0.93998542E-02
 -0.81299879E-02  0.42157973E-02  0.22445626E-01
 -0.29964428E-04  0.18816576E-01  0.46811440E-02
 -0.46127670E-02  0.90128178E-02 -0.45896086E-02
 -0.25879494E-02 -0.11577893E-01  0.13335669E-03
  0.78228531E-02  0.63529050E-02  0.27737942E-02
  0.12523073E-01  0.48024287E-02  0.33281172E-02
  0.11965424E-01 -0.17823295E-01  0.58605803E-02
  0.38129452E-02 -0.24822380E-01  0.93473678E-02
  0.13811483E-01 -0.77232511E-02 -0.29342207E-02
 -0.31129010E-01  0.34156327E-03  0.94116946E-03
  0.40890011E-02 -0.36569893E-01 -0.64583233E-02
  0.10818365E-01  0.20516135E-02  0.10385744E-01
  0.68401456E-02  0.27960810E-02 -0.15609006E-01
  0.81775748E-02  0.15315480E-01 -0.95523373E-02
 -0.24320035E-01  0.13966251E-01 -0.83421008E-02
 -0.13711132E-02 -0.14332459E-01 -0.14108140E-01
  0.12380745E-03 -0.24826312E-02 -0.14525911E-01
 -0.12610538E-01 -0.87169631E-02 -0.32615569E-02
  0.28293785E-01 -0.16234042E-01  0.55723577E-02
  0.41240642E-02 -0.13350289E-01  0.51510823E-03
  0.11848713E-01  0.47053721E-02  0.23683453E-01
  0.45809524E-02 -0.72331939E-02  0.69978919E-02
 -0.12176481E-01  0.11605318E-01 -0.46699890E-02
  0.30887791E-02  0.35312385E-02 -0.38561363E-02
  0.31267265E-01 -0.90646014E-02  0.14332613E-01
 -0.14114519E-01 -0.23572624E-01  0.19339288E-02
 -0.84728111E-02  0.28357813E-01  0.75494917E-02
 -0.48581800E-02  0.52144180E-02 -0.43353098E-02
  0.61394999E-02  0.17207185E-01  0.88678713E-03
 -0.55229570E-03 -0.68187650E-02 -0.19593535E-01
 -0.19987977E-02  0.27244563E-01 -0.20337513E-01
 -0.21279149E-02 -0.76608025E-02 -0.45348821E-02
 -0.61904436E-02  0.18388426E-01 -0.18568428E-02
 -0.15924484E-01  0.10568261E-01  0.57661181E-04
 -0.92053057E-02 -0.50561041E-03 -0.63361373E-02
  0.64103664E-02 -0.84642706E-02 -0.11031373E-01
 -0.49394890E-02  0.10834546E-02  0.55759143E-02
 -0.75644086E-02  0.29390699E-01 -0.19983543E-01
 -0.50974372E-02 -0.12585551E-01  0.94047789E-03
 -0.20531058E-01 -0.37042163E-02 -0.42765964E-02
  0.22585495E-02 -0.65798513E-02 -0.75170659E-03
  0.10994216E-01  0.15204806E-01  0.15626963E-01
 -0.45202593E-02 -0.14615730E-01  0.58695268E-02
 -0.11840316E-01  0.18349117E-01  0.14474700E-01
 -0.11607202E-01 -0.10859155E-01 -0.11930535E-01
 -0.11868326E-01 -0.99482753E-02 -0.19742851E-01
 -0.16500746E-01  0.14646615E-02 -0.20914636E-02
  0.25321047E-02  0.14480039E-01  0.38962077E-02
  0.23730690E-02 -0.19742515E-01 -0.10899011E-01
  0.16316786E-01 -0.17761041E-01 -0.14071474E-02
 -0.11169176E-02  0.79139810E-02  0.87527512E-02
 -0.18376448E-01 -0.20657738E-02  0.57870903E-02
  0.54993351E-02  0.18321453E-01 -0.12703301E-01
  0.29051572E-02  0.75565359E-02  0.18174428E-01
 -0.24347157E-02 -0.26911990E-02  0.94884530E-02
  0.90829832E-03  0.32497227E-02  0.99124835E-02
 -0.15337336E-01  0.11336797E-01  0.28974975E-03
 -0.12856758E-01 -0.65686536E-02  0.73633431E-02
  0.12671501E-01 -0.10861840E-01 -0.21758956E-01
  0.45669350E-02  0.43768921E-02  0.61701303E-02
  0.13615016E-02 -0.91143822E-02 -0.10441645E-01
  0.27604867E-02 -0.13191361E-02 -0.89870699E-02
  0.65915893E-02 -0.46108996E-02 -0.88188951E-02
 -0.81328854E-02  0.19782353E-02 -0.19879817E-01
 -0.70347406E-02  0.22330967E-01 -0.40467060E-02
 -0.16519328E-01  0.11833454E-01  0.18756156E-01
  0.20352970E-01  0.12201184E-01 -0.25896696E-01
 -0.36579402E-02 -0.34889138E-02  0.17294607E-01
  0.71263245E-02  0.64885746E-02  0.93224809E-02
 -0.10482871E-01 -0.26537681E-01  0.47012249E-02
 -0.69099202E-02  0.30162376E-02  0.58992101E-02
 
           1
  0.500000000000000     
  0.94919152E+00 -0.14019256E-02 -0.67485570E-17  0.00000000E+00
  0.47261111E-01  0.12951032E+00  0.13556599E-01
  0.24452687E+00  0.53858873E-01  0.10153803E+00
  0.20925847E+00  0.22946218E+00  0.17497301E+00
  0.25200609E+00  0.17884043E+00  0.97133268E+00
  0.10041881E+00  0.29560890E+00  0.12854725E+00
  0.15245317E+00  0.49730281E-01  0.22479653E+00
  0.65972564E-01  0.16738694E+00  0.29817736E+00
  0.26935143E+00  0.57794814E-01  0.44602811E+00
  0.16701696E+00  0.22878530E+00  0.55896868E+00
  0.27117469E+00  0.19943317E+00  0.32759479E+00
  0.59045012E-01  0.28032986E+00  0.42987139E+00
  0.10631012E+00  0.22385882E-01  0.58358812E+00
  0.25991907E-01  0.10936614E+00  0.68653068E+00
  0.18110510E+00  0.58818565E-01  0.75415084E+00
  0.13433375E+00  0.23571299E+00  0.86758186E+00
  0.23245240E+00  0.19892300E+00  0.66573590E+00
  0.98263509E-01  0.28323300E+00  0.72896208E+00
  0.94601416E-01  0.40599364E-01  0.89199643E+00
  0.47727248E-01  0.49494692E+00  0.96101724E+00
  0.31267302E+00  0.43054995E+00  0.14143287E+00
  0.23245866E+00  0.60630525E+00  0.18840053E+00
  0.24303445E+00  0.50101159E+00  0.93387582E-02
  0.68497114E-01  0.59348787E+00  0.11070872E+00
  0.16681469E+00  0.39509184E+00  0.26126930E+00
  0.75825761E-01  0.49333171E+00  0.29933263E+00
  0.25450649E+00  0.42059880E+00  0.45165446E+00
  0.16105775E+00  0.55835091E+00  0.56970645E+00
  0.27820963E+00  0.57352278E+00  0.33101208E+00
  0.12967248E+00  0.62576445E+00  0.41338368E+00
  0.13600649E+00  0.38723848E+00  0.57126223E+00
  0.10409545E+00  0.45389767E+00  0.71592534E+00
  0.26898774E+00  0.42247448E+00  0.78749947E+00
  0.22482394E+00  0.60571589E+00  0.88257771E+00
  0.29398693E+00  0.54100318E+00  0.66223173E+00
  0.10008993E+00  0.64322689E+00  0.75881588E+00
  0.14319649E+00  0.40660456E+00  0.88488345E+00
  0.66590070E-01  0.80844552E+00  0.85403082E-03
  0.25055554E+00  0.73225871E+00  0.83268217E-01
  0.11985120E+00  0.83458805E+00  0.19689515E+00
  0.27970859E+00  0.89057502E+00  0.99181642E+00
  0.42192468E-01  0.92969105E+00  0.11196463E+00
  0.15042027E+00  0.72038606E+00  0.24143764E+00
  0.61545589E-01  0.78279688E+00  0.35846998E+00
  0.27950078E+00  0.75006333E+00  0.43685462E+00
  0.18642868E+00  0.93225048E+00  0.55047009E+00
  0.26323564E+00  0.87141922E+00  0.35050741E+00
  0.83460389E-01  0.95957384E+00  0.42729719E+00
  0.20041260E+00  0.76917985E+00  0.54618242E+00
  0.77349416E-01  0.79525418E+00  0.66390640E+00
  0.32017070E+00  0.77525464E+00  0.81661933E+00
  0.23464432E+00  0.97125163E+00  0.88295458E+00
  0.25494501E+00  0.87992605E+00  0.68854452E+00
  0.48515578E-01  0.85996964E+00  0.79732251E+00
  0.14422762E+00  0.72060784E+00  0.89710986E+00
  0.42022322E+00  0.13700729E+00  0.12135570E-01
  0.59646146E+00  0.76959011E-01  0.11802731E+00
  0.51770777E+00  0.29086060E+00  0.25719398E+00
  0.62747178E+00  0.24235936E+00  0.97845629E+00