(Si O2)81  (P1) ~ 3x3x3Supersel (VASP)  
   1.00000000000000     
    14.9916000000000000    0.0000000000000000    0.0000000000000000
    -7.4957993700000003   12.9831068100000007    0.0000000000000000
     0.0000006000000000    0.0000010400000000   16.3712997000000016
   O    Si
   162    81
Direct
  0.0760644068187974  0.1084660090643330  0.0179872146642065
  0.2652040834215736  0.0259011447831839  0.0892787674024391
  0.2198080718446708  0.2536559514441189  0.2114674038559651
  0.2758203960044064  0.1624951900389323  0.9781830034068989
  0.0743027912656753  0.2681720479718947  0.1238153794665350
  0.2016265077350445  0.0895577666141237  0.2032270657677537
  0.0631430767276809  0.1017435712035536  0.3065422022017035
  0.2876879654561884  0.1247039269022250  0.4959138646059117
  0.0990427730929103  0.1998514450540775  0.5695015423965931
  0.2435218579176882  0.1905428395144460  0.3634141583483277
  0.0633073550734211  0.2578560246949101  0.4184066189377078
  0.1457848432473533  0.0692766372398111  0.6134019377401504
  0.0262666661933701  0.1105505707576908  0.6826451560096818
  0.2692692190411092  0.1035504354548502  0.7660205392986417
  0.1729622785689182  0.2712859657237580  0.9352879731848655
  0.2484553305091174  0.2213793315850117  0.6657763123979809
  0.0752870289708958  0.3028863532106618  0.7547280536099781
  0.1340421888562906  0.0646344374066201  0.8685833688183227
  0.0491855025819006  0.4101779916115357  0.0220384879635349
  0.2777223609909855  0.3916420937747462  0.1057316737655313
  0.2422984068525359  0.6394147462024470  0.2452353477327951
  0.2481302190771421  0.5085888934315870  0.9994837407768142
  0.0653436246174249  0.5468751783231174  0.1331251575501754
  0.1464231173369239  0.4306892383668186  0.2175394572085020
  0.0885316691415573  0.5001260916955955  0.3264723425725317
  0.2603076476495424  0.3750823642829267  0.4871573757489265
  0.2020353452631186  0.5798629742225598  0.5052666061225269
  0.2833061341132772  0.5033009335304162  0.3464477625656563
  0.0702773775028305  0.6610822470857359  0.3986779111068953
  0.0965409668901506  0.3708071457925144  0.5619594226464592
  0.1216402202558329  0.5232176210269480  0.6709563029831240
  0.2459364752478572  0.3271615876579863  0.7848887384021285
  0.1447935942693016  0.5801488075908994  0.9076149088158466
  0.2627758334010492  0.4800677706055617  0.6348271217425566
  0.0320300505370412  0.5815738345379067  0.7685224509380505
  0.1122413066615797  0.3752943268256780  0.9163099746703467
  0.1146101336318049  0.8314204604491425  0.0362816164373606
  0.2496147693207185  0.7272988653643401  0.0994373211618833
  0.1771480060889447  0.8839612419281521  0.1973780574532056
  0.2696892370955415  0.8584567659889170  0.9748659252283602
  0.0634055150562747  0.9266125579592370  0.1484751760505194
  0.1558351545394556  0.7322785206269614  0.2298384045477056
  0.0488951069880916  0.8109865351206526  0.3550697056745391
  0.2715190315357935  0.7458620751158584  0.4036196813149089
  0.1919904386357595  0.9345301014064290  0.5829151600849338
  0.2269422755645417  0.8663654136571501  0.3583310506088812
  0.0922137718214945  0.0134807364768313  0.4486530424957408
  0.1481411098421964  0.7171059462929026  0.5428807771707569
  0.0421472379706945  0.7806817834956568  0.6265496245820980
  0.2106363520098143  0.7218838042492731  0.7676295006625248
  0.2046086780319951  0.9512357186000207  0.9057085164200400
  0.2233846819108769  0.8442569301415728  0.6698404459508108
  0.0609221015271235  0.9057230366410788  0.7654270243525682
  0.1041370738841827  0.7299473298214568  0.8914972900648641
  0.4595260492568409  0.2031605811317124  0.0036154665196226
  0.5596731095555796  0.1089187269424484  0.0595152381400523
  0.5354888226665862  0.2904000315217714  0.2689468882461003
  0.6439992596096867  0.2087340506208261  0.9259727148951036
  0.3827788368930123  0.2722765690487304  0.1128191231197198
  0.4840743571782656  0.0836250367655351  0.2113295262591260
  0.3862156869293492  0.1397883806803167  0.3446147820674349
  0.6546628734003852  0.1134222803126377  0.5033451867155341
  0.5810972906375877  0.2854764224910623  0.5514131616746453
  0.5938774452041445  0.1602501035928795  0.3380494046931356
  0.4149880157005306  0.3018499764716464  0.4581679470672574
  0.4812735267824920  0.1020154031209884  0.5219564529051722
  0.3929837252572833  0.1738505975410816  0.6401509820877814
  0.5950913213005464  0.0659334660326420  0.7550423005088234
  0.5464082959035675  0.2801902526192258  0.8723884045420577
  0.5559780341070528  0.1838001658180947  0.6728958502535382
  0.3727738350278895  0.2700970904607786  0.7934326231884132
  0.4545554713294922  0.0787931624730696  0.8784758613767616
  0.3632425018636125  0.4483594464601814  0.9685245765383340
  0.6083727962167811  0.3944728305358691  0.1458633710462305
  0.4925789836705187  0.5968714877543867  0.2770790978453642
  0.5605297010175168  0.5012581852403823  0.0362174840780450
  0.4054071037311515  0.5917979048108583  0.1283099387871112
  0.4747850342354295  0.4041332160220194  0.2464498728323272
  0.3485212301454553  0.4099703226699318  0.3490172814237610
  0.6019976314058584  0.4116495785382583  0.4477927015281533
  0.5149608242255199  0.5786293511110598  0.5732233072574947
  0.6039172932291254  0.5479271974563166  0.3343629704842305
  0.4499600550353690  0.5523033285043482  0.4644909374414940
  0.5309977714984205  0.4117129192352937  0.5708797987030435
  0.4214620739772672  0.4704518032244180  0.6958330533374796
  0.5552470795541616  0.3867550551796778  0.7397930937643264
  0.5533980421948983  0.5969047748988141  0.9056050494844037
  0.6155272926186740  0.5738808017795980  0.6891387830519111
  0.3980893814885332  0.5388897113955817  0.8159244455989471
  0.5061092029494862  0.4027721600458539  0.9001928790418303
  0.4073863335247804  0.8061312303811509  0.0379514438314400
  0.5857392156415303  0.6972692246412422  0.1054888172275895
  0.5259796530381934  0.9155593714640561  0.1726220878319240
  0.5899088643470612  0.8304520408564856  0.0169217094741985
  0.3873421463313047  0.9549230794024224  0.0997526719213072
  0.4834415007245420  0.7437939323788759  0.2055569939331727
  0.4131521857784770  0.8402044274237040  0.3169480084861720
  0.6067575110732670  0.7757012927522898  0.4474557834267739
  0.5136667529093544  0.9261404675102323  0.5513542988115049
  0.5982365757708559  0.8657531169719437  0.3065929574010723
  0.4202446156498160  0.9336273910095436  0.4558992428060440
  0.4728675732315066  0.7494968402778469  0.5382929665834232
  0.3766867005984558  0.7898410856950464  0.6507800299353225
  0.5924122337377811  0.7318987952674777  0.7897158534248473
  0.5395700127645533  0.9275561613449133  0.8829759985684396
  0.5989195814091229  0.8617881040316545  0.6588345229122907
  0.3879395887726435  0.9224253882837451  0.7690643472474016
  0.4501333711644342  0.7155463163340352  0.8961021123973483
  0.7537271880226604  0.1522262743219837  0.0320849033769993
  0.9222596045956176  0.0919794289546164  0.1108770092538999
  0.8072723639434060  0.2385105391354981  0.2177390602213847
  0.9481697412295947  0.1899337815068172  0.9742814555608732
  0.6864402628005527  0.2664106183676913  0.0960505749997027
  0.7491090021381532  0.0263792860551049  0.2072826166204765
  0.6801008498400273  0.1034742290699650  0.3209043366687676
  0.9409789025304724  0.0520792618357026  0.4207995487333362
  0.8974235567766380  0.2973520969972682  0.5261959646385358
  0.9123847532878141  0.1774768775302241  0.3147654346558557
  0.8135669558701630  0.2915426069145451  0.3907503302444131
  0.8260556605309728  0.0881311988404016  0.5550675112907292
  0.7469732243731907  0.1606463577388576  0.6506045963115747
  0.9330816081812306  0.0988480518678188  0.8088655083210380
  0.8397325547789712  0.2411972805749513  0.8649863655823069
  0.9706297905583725  0.2430202768501869  0.6382223431920787
  0.7398908466143915  0.2816005259964281  0.7567776381839304
  0.7690586347433638  0.0512303336533353  0.9224289109184802
  0.7238504694359892  0.4641670639484294  0.0036129352467655
  0.8800114792669319  0.3573856210003829  0.0943614869924744
  0.8280064878786383  0.5948518196181254  0.2031074253536365
  0.9235000118470271  0.5222689362597219  0.0325347418957344
  0.7464190412420626  0.5925455863584383  0.0949368996769300
  0.7672003859568149  0.4000112723883766  0.1965879177911761
  0.7637219326184295  0.4853721905141445  0.3395539792063415
  0.9697270596174000  0.4639224183135411  0.4432393341860366
  0.8701240413008524  0.6104878121003445  0.5521250720347554
  0.9342858373892858  0.5185789415443643  0.2709545655026596
  0.7463300133887054  0.6188410935863252  0.4404582583760172
  0.7892264374131451  0.3902564856110401  0.5140640609776993
  0.7630763976177627  0.4975765850310167  0.6613543982663947
  0.9175647182173153  0.3772874967748253  0.7315933086968728
  0.8553928986667483  0.5909304693571834  0.8956093589282466
  0.9373063991072804  0.4908497825951337  0.6182821023092652
  0.7472423964937526  0.5366665917995619  0.7865674847258324
  0.8526280172025197  0.4005484719901728  0.8995615015991679
  0.7445901182376458  0.7726304371442412  0.9906162413503584
  0.9574653808869915  0.7388862967086777  0.1105305089377763
  0.9384741956663643  0.9974389532940963  0.2145056088964082
  0.9566940459670076  0.8401127384711354  0.9907891200319522
  0.7547768103701199  0.9031799594637658  0.1109113204675305
  0.8502031317620012  0.7758247722127124  0.2082720964156519
  0.7758220044916233  0.8533269336362651  0.3278376329409958
  0.9347210314984888  0.8042408746898353  0.5026020379445798
  0.8970799945136233  0.9280680392943402  0.5604811823720766
  0.9254908398020941  0.8597744754124278  0.3525680712905406
  0.7487827889804567  0.9576849564560183  0.4413838495040273
  0.7768239505092425  0.7068512072895381  0.5849089933833793
  0.7365224104899712  0.8105713830957292  0.6992476986671892
  0.9281787803781928  0.6911495126570936  0.7569538565176864
  0.8624424892604844  0.9351273105375693  0.9125710585453398
  0.9160736081778389  0.8324521357103080  0.6890168754778080
  0.7338977383196293  0.9694765873493066  0.7992274678715404
  0.8356917393847632  0.7476233707519053  0.8618145258858119
  0.1860858481988642  0.9897974284082217  0.1628799074167357
  0.1928734158216626  0.1704773807348895  0.2726227804438043
  0.0154649270708241  0.1778374914575399  0.0536217357086935
  0.1660751757345987  0.0126166165728045  0.5305202261924113
  0.1396964425292980  0.1607339706868414  0.6363183308135222
  0.0019857121390343  0.1501707585927093  0.3582006087348588
  0.1727889964398394  0.9933486062696111  0.8260186043754506
  0.1681368434773872  0.1561663744867244  0.9479630524766580
  0.9740018308298122  0.1834328634405114  0.7406236466311028
  0.1756934640279320  0.3304483118944536  0.1837496166522409
  0.1927230628534066  0.5206053784426288  0.2903579355399249
  0.9857956709592073  0.4615746120084319  0.0625192469487850
  0.1020013894045858  0.2887027645430545  0.5169984820752256
  0.1767850613762586  0.5192892466368512  0.5964085190059346
  0.0290550032254966  0.5741243322583859  0.3359864637680829
  0.1519506570824758  0.3268621374430122  0.8474882620948710
  0.1357828121393888  0.4807900826644189  0.9579367057097300
  0.9993178852502252  0.4905426142607746  0.6951723337815228
  0.1780243169150418  0.6640490803426154  0.1696690441707781
  0.1320719722182255  0.8274719977430007  0.2919279242616318
  0.0276628459857399  0.8423335969391667  0.0524935700049445
  0.1785273643241903  0.6610368617016008  0.4757120459539659
  0.1571182896170495  0.8204134144718174  0.5968318133763302
  0.9840886343185279  0.9052857588419209  0.4386097247214567
  0.1221478954886819  0.6480046555406567  0.8391852704168707
  0.1640387962346949  0.8384009944015708  0.9416093327050240
  0.9978807684648977  0.7968038364411743  0.7120999785832138
  0.5035093237698487  0.0199432660381569  0.1348374262256580
  0.5066926008244744  0.1723071002032882  0.2947597350959379
  0.3391174523494247  0.1560205706192543  0.0611453335341857
  0.5252921390512660  0.0202374221631388  0.5015932391437130
  0.4890066070701317  0.1740730055564384  0.6037553765484873
  0.3388466317863946  0.1926035084533123  0.4142132980311489
  0.4963657435524129  0.9920860176983215  0.8204727588771096
  0.5233633669972740  0.1936521999723871  0.9302578199613786
  0.3529139642781761  0.2227973381478617  0.7121306627620788
  0.4902829094131322  0.3208299852511041  0.1794315441442716
  0.4537614924545998  0.4751710449791192  0.3123863402318786
  0.3372168783130432  0.5005353738590871  0.0511341543365934
  0.5210980522085406  0.3279925765278278  0.5113763149742580
  0.5144455291052848  0.4858245302005728  0.6267394748523922
  0.3326432195263065  0.4735010158862315  0.4192789525524530
  0.4932120110317017  0.3436721887351937  0.8257733041997453
  0.4957672662485187  0.4991481078249153  0.9543178590941878
  0.3294268967081262  0.4793441582549451  0.7265305073386981
  0.5102138269381039  0.6434936004895182  0.1809480046978618
  0.4802807999730824  0.8267599121935225  0.2548830308947929
  0.3134830142763446  0.8350939180299640  0.0680883962346629
  0.5224162198693184  0.6678821358803722  0.5051763671125730
  0.4935800061701980  0.8299049418000014  0.6108862582611009
  0.3362649002487393  0.8571038147044679  0.3730523777126955
  0.4742498894444396  0.6354725596335539  0.8618586711914061
  0.4923514588141704  0.8219328080998056  0.9776189206190129
  0.3090276568356117  0.8140164118131440  0.7180429790509749
  0.8395813716385180  0.0079922701376158  0.1645451613214608
  0.7877043474313858  0.1258549824602511  0.2725844017570021
  0.6631786715640330  0.1869776439690643  0.0192221220825536
  0.8654572946283305  0.0200334231948258  0.5043931524543506
  0.8504398729917240  0.1933756150312785  0.5933223866438084
  0.7030569529965559  0.1926413046766157  0.3882726053582397
  0.8266345532498706  0.0019515955452022  0.8631498890408550
  0.8390370075910921  0.1693715436195815  0.9609720530070706
  0.6694450259035510  0.1661213195560654  0.7134910585423851
  0.7748279931899688  0.3121742359716144  0.1628566795086940
  0.8231171240751990  0.5040738785952311  0.2538355364666093
  0.6466525635347121  0.4669319536417812  0.0646131998205957
  0.8801716894800725  0.3727464602395691  0.4760549746162198
  0.8426755525315106  0.5020275382145951  0.5835799418277350
  0.6862084184913008  0.5122572038596809  0.3953553544927526
  0.8405211275559283  0.3325852633992234  0.8162939685855766
  0.8334812183349810  0.4850249170921627  0.9615027456553563
  0.6504024141297687  0.5024152803936770  0.7204414994054018
  0.8413663856577078  0.6865721349634232  0.1493550151379074
  0.8925772259767174  0.8774112277973539  0.2649646252927773
  0.6733686222298754  0.8002908737193248  0.0550775748261690
  0.8302984217225012  0.6720624962369853  0.5005243130221685
  0.8113836626215185  0.8003314129158575  0.6445172465502084
  0.6810171532481495  0.8581307578013887  0.3610899607196997
  0.8433236895266746  0.6517817978440746  0.8300555659125749
  0.8488829135245859  0.8225017434693863  0.9324984125630668
  0.6588584102357099  0.8536887608686559  0.7371091643600890
 
 -0.28673317E-02  0.12108215E-02 -0.67759429E-02
  0.22560843E-01 -0.13232462E-01 -0.10676970E-01
 -0.38423588E-02  0.67237643E-02 -0.61799195E-02
 -0.84967179E-02 -0.46507817E-02 -0.53641813E-02
  0.12280944E-01  0.13883348E-01 -0.22070652E-01
  0.83499937E-02 -0.98199660E-02 -0.59725706E-03
 -0.10676647E-01 -0.41097487E-02  0.11828581E-01
  0.69328501E-02 -0.22928363E-01  0.48112424E-02
 -0.24166276E-01 -0.18395902E-01  0.22200469E-01
 -0.94882697E-02 -0.18955100E-01 -0.54246692E-02
 -0.19826782E-01  0.70683311E-02 -0.11258881E-01
 -0.71271952E-02  0.96989499E-02 -0.17695365E-01
  0.13854534E-01 -0.18417437E-01  0.40202394E-01
  0.34691791E-02 -0.20459863E-01 -0.64290204E-02
 -0.11087464E-02  0.86520787E-02  0.18541994E-01
 -0.16248914E-01 -0.13459835E-03  0.31631926E-01
 -0.34240054E-02 -0.21460171E-01 -0.13362513E-01
  0.38606171E-01 -0.21181956E-01 -0.16658920E-02
 -0.13125393E-01  0.24112676E-02  0.10801781E-01
  0.38001138E-02  0.37909500E-02 -0.70196856E-02
  0.19371992E-01  0.71256269E-03  0.22658736E-02
 -0.18472471E-01  0.43162776E-02  0.18755767E-01
  0.78514489E-02 -0.93240928E-02 -0.20790892E-01
  0.70072300E-02 -0.20766368E-01  0.93594170E-03
 -0.24405571E-01  0.18940860E-02  0.11105614E-01
  0.60400781E-02 -0.87139045E-02 -0.26486388E-01
  0.65453179E-02 -0.10128101E-03  0.19237966E-01
  0.23241538E-01 -0.21979071E-01 -0.77765955E-02
  0.69196190E-02  0.14792566E-01  0.13672189E-01
  0.10773900E-01  0.21165801E-01  0.90680315E-02
  0.12955752E-01  0.88880928E-02  0.18991048E-01
  0.64026003E-02 -0.11214896E-01  0.14580410E-01
 -0.90525895E-02 -0.47474526E-02 -0.17562125E-01
  0.18951328E-01 -0.22119000E-01  0.10579581E-01
 -0.26108356E-01  0.52290788E-02 -0.13345436E-01
  0.14162519E-01 -0.96273045E-02 -0.70612760E-02
  0.33246208E-01 -0.76817060E-02  0.12256884E-01
  0.63417231E-02  0.58138542E-02  0.21696291E-01
 -0.39839419E-02  0.23330772E-01 -0.13614814E-01
 -0.17049693E-01 -0.49490967E-02  0.14711305E-01
  0.23926399E-01 -0.53182453E-02  0.99720322E-02
  0.17923785E-01  0.17669779E-01 -0.11843955E-01
 -0.54866903E-02  0.16947049E-02  0.18719299E-03
 -0.86922741E-02  0.16818994E-01 -0.59075372E-02
  0.15975719E-01  0.67157405E-02  0.13040635E-01
 -0.59993262E-02  0.14241855E-01  0.82999078E-02
 -0.31206476E-02 -0.82812053E-03  0.16501703E-01
  0.36333542E-01  0.13627599E-02  0.32902185E-01
  0.94843312E-02  0.11541373E-01  0.59706581E-02
  0.32723628E-02 -0.11961222E-01  0.43414167E-02
  0.10463295E-01  0.49297246E-02 -0.16106865E-01
  0.23209940E-01  0.12569015E-01 -0.30943463E-01
  0.10687648E-01  0.13738609E-03  0.14722083E-01
 -0.73026741E-02 -0.22228039E-01 -0.73041673E-02
 -0.18585755E-02 -0.14474548E-01 -0.26836859E-01
 -0.21508336E-01  0.24850976E-03  0.12422246E-01
  0.28226293E-01 -0.18995815E-01 -0.10726719E-01
 -0.13528725E-01  0.35296651E-02 -0.83580047E-03
 -0.27225919E-02  0.29886155E-02  0.57378246E-02
 -0.13270430E-01  0.27529361E-01 -0.39444036E-02
  0.11234887E-01 -0.23001999E-02 -0.55845243E-02
 -0.31966802E-02  0.20250889E-01  0.72078156E-02
  0.17637279E-01  0.60185508E-02 -0.48410192E-02
  0.29160179E-02  0.14580833E-01 -0.32258746E-02
 -0.14322083E-01  0.18938643E-02  0.20772189E-01
  0.22405628E-02  0.10668362E-02  0.21407064E-01
 -0.12247086E-01 -0.28275087E-02 -0.85665166E-02
  0.25843261E-02  0.32017566E-01 -0.22800556E-01
 -0.65879121E-03  0.60198721E-02  0.25860295E-01
 -0.40093907E-01  0.25394562E-01  0.76596308E-02
 -0.61796432E-03 -0.28257748E-01  0.84192597E-02
 -0.98320722E-02  0.16815399E-01  0.21738874E-01
 -0.23034234E-01 -0.23685913E-01  0.33525733E-02
 -0.72498539E-02  0.17246154E-02 -0.39967768E-02
 -0.97778362E-02 -0.86176858E-02 -0.19352084E-02
  0.30112692E-02  0.90609167E-02  0.22279108E-01
  0.10096607E-01 -0.19535898E-01  0.14390532E-01
 -0.72054001E-02  0.25664866E-01 -0.12644023E-01
 -0.17903556E-01 -0.36595254E-02  0.16100890E-01
  0.67004546E-02 -0.17344506E-01 -0.11703609E-02
  0.47120667E-02 -0.23496866E-01  0.70391835E-02
 -0.79271840E-02  0.65281498E-02 -0.13504675E-01
 -0.16378475E-01  0.44664381E-02 -0.21539951E-02
  0.12998119E-01 -0.25751948E-01 -0.97651991E-02
  0.18258125E-01  0.81376564E-02 -0.63573981E-02
 -0.43812668E-02  0.80204774E-03 -0.79346430E-03
  0.97748312E-02  0.66903798E-02  0.10428977E-01
 -0.67626308E-02  0.13632552E-02 -0.41148676E-02
 -0.17263481E-01  0.37005024E-04 -0.14939200E-01
  0.19781192E-01  0.27689934E-01 -0.42520128E-02
 -0.10559920E-01  0.56950276E-03  0.12126829E-01
 -0.65713544E-02 -0.16683389E-02 -0.20500749E-01
 -0.13259796E-01  0.12338304E-01  0.14370267E-02
  0.23955332E-01 -0.92330608E-02 -0.10864554E-01
  0.74297278E-03 -0.17409787E-03 -0.16889592E-01
  0.14915433E-01 -0.38239134E-02 -0.38513027E-01
 -0.54824067E-02 -0.91506743E-02  0.32043586E-02
 -0.19795304E-01 -0.54009011E-02 -0.12706996E-01
 -0.76260068E-02  0.10802219E-01  0.20057662E-01
 -0.42997197E-02 -0.22863592E-01 -0.15928049E-01
  0.10685533E-01  0.19018061E-01 -0.28509013E-01
 -0.13381486E-02 -0.12468990E-01 -0.13643960E-01
  0.15184227E-01  0.61634283E-02 -0.59897402E-02
 -0.34083448E-01 -0.85776565E-03  0.58782280E-02
 -0.17589611E-01  0.14746642E-01  0.48133746E-02
  0.36467049E-02  0.13067708E-01  0.20430726E-01
  0.14367743E-02 -0.32063785E-02  0.22783510E-01
  0.40210242E-02  0.45240069E-02 -0.26937396E-01
  0.10304870E-01 -0.62223857E-02 -0.95149478E-02
  0.55901720E-02  0.17566089E-01  0.64135585E-02
 -0.12010639E-02  0.33704209E-01 -0.25319066E-01
  0.89218156E-02  0.12465410E-01  0.29911288E-02
 -0.10546638E-01 -0.61011862E-02  0.15870947E-01
  0.17186182E-02  0.17450315E-01  0.19058573E-02
 -0.36226904E-03 -0.93072262E-02 -0.14685915E-01
  0.29028699E-02 -0.21427590E-02  0.34341331E-03
  0.58477860E-02  0.10190806E-01  0.72928724E-03
  0.80014473E-02  0.70850453E-02  0.62395600E-02
 -0.77783696E-02  0.24482122E-01  0.24173090E-01
 -0.22592154E-02 -0.17266762E-01  0.10042115E-01
  0.49831768E-02 -0.14666324E-01  0.11471616E-01
 -0.10976757E-01 -0.27423716E-02  0.25125886E-01
 -0.35866697E-02  0.88076903E-02  0.37133634E-03
  0.17816307E-01 -0.12185781E-01  0.11896632E-01
 -0.66121204E-03 -0.16319808E-01 -0.11226502E-01
  0.15261719E-01 -0.10935411E-01  0.55267234E-02
 -0.93090925E-02 -0.69971864E-02 -0.35588879E-01
 -0.51552258E-02  0.32911523E-03  0.13801371E-01
  0.52784323E-03  0.65940181E-02 -0.20314077E-01
 -0.20607182E-01 -0.25644724E-01  0.40688848E-02
  0.16755675E-01 -0.40617498E-02  0.32820398E-02
 -0.22898381E-01 -0.53681458E-02  0.39566309E-02
  0.18948322E-01 -0.13119451E-01 -0.20112201E-02
  0.92370984E-02 -0.26077608E-01 -0.65822322E-02
  0.65090733E-02 -0.68048102E-03  0.18466779E-01
  0.16570086E-01  0.23061510E-01 -0.15203897E-01
 -0.34601262E-02 -0.15735364E-01  0.48138497E-02
 -0.18882031E-01  0.81901302E-02 -0.33306017E-01
  0.58593492E-02 -0.71394314E-02  0.58002567E-02
 -0.14178761E-01  0.84086648E-02 -0.19977493E-01
  0.12842534E-01  0.10611286E-01 -0.14713131E-01
 -0.10425907E-01 -0.31343924E-01  0.26125721E-03
 -0.11294676E-01  0.61800333E-02 -0.13055696E-02
  0.12801528E-01  0.45898642E-02 -0.20484476E-01
 -0.22897360E-02  0.23088162E-01 -0.19769878E-01
 -0.91673306E-02  0.21161640E-01 -0.83889596E-02
  0.13433867E-02 -0.18875635E-01  0.81155868E-02
 -0.36851904E-02 -0.55243413E-04 -0.34229250E-01
  0.14822548E-02  0.29987351E-02  0.13329503E-01
  0.11727880E-01 -0.12696884E-01  0.29454508E-02
  0.29119094E-02 -0.20129653E-02 -0.28430047E-02
 -0.23304177E-01 -0.90615264E-02  0.10114673E-01
 -0.36766137E-02 -0.84043039E-02  0.20721984E-01
 -0.45300722E-04  0.14663534E-01 -0.11390227E-01
 -0.72162347E-02  0.45988648E-01 -0.83558678E-02
  0.15427471E-01 -0.97142345E-02 -0.47817125E-02
  0.94826329E-02  0.22482699E-01 -0.18022535E-01
 -0.97649577E-02 -0.53548186E-02 -0.41833177E-02
 -0.43984901E-02  0.43910399E-03  0.32567256E-02
  0.76267973E-02  0.82577901E-02 -0.20653640E-01
 -0.12914186E-02  0.69508385E-02  0.12435418E-01
 -0.90724823E-02 -0.30284503E-01 -0.26090908E-01
 -0.35781042E-01  0.27814085E-02 -0.47681175E-02
 -0.79548068E-02  0.61216073E-02 -0.60047770E-03
  0.22139776E-01  0.28711547E-02 -0.15982055E-02
 -0.14355270E-01 -0.95038343E-02 -0.56451651E-02
 -0.63236368E-02  0.81952393E-02  0.88002909E-02
  0.39838762E-03 -0.15657831E-02 -0.69621218E-02
  0.26838168E-03 -0.15106402E-02 -0.23117348E-01
 -0.77843347E-03 -0.11177396E-02 -0.18095956E-01
  0.84911469E-02 -0.10692006E-01 -0.51240261E-02
  0.13052283E-01  0.45877212E-02 -0.96751663E-02
  0.15498023E-01 -0.17877253E-01  0.12117328E-01
 -0.21230545E-01  0.15053139E-02  0.77767158E-02
  0.22372392E-01 -0.78813786E-02  0.40588822E-02
 -0.83055751E-02  0.64802896E-02 -0.30637349E-01
  0.48280830E-02  0.59339429E-02  0.94271043E-02
  0.32657481E-02  0.13631684E-01  0.16851367E-01
  0.11934449E-01 -0.13357949E-01  0.27586429E-02
 -0.66508336E-04  0.18298163E-01 -0.13696154E-01
  0.42603822E-02 -0.55793794E-02  0.70187337E-02
  0.25744049E-01  0.53978048E-02  0.13163739E-01
 -0.15817769E-01  0.12310365E-01 -0.10288659E-01
 -0.14030328E-01  0.34670926E-02  0.37547139E-02
 -0.15284218E-01  0.13330501E-01  0.15423185E-01
 -0.29151882E-02 -0.12823104E-01  0.38140831E-02
  0.12204125E-01  0.49976180E-02 -0.82132867E-02
 -0.66206265E-02 -0.15406536E-01 -0.13166209E-02
 -0.77724745E-02  0.10991794E-01 -0.37901421E-02
 -0.17326948E-01  0.11674874E-02 -0.73200103E-02
  0.25193624E-02 -0.10622829E-01  0.13012670E-01
  0.91938811E-02 -0.16551859E-02 -0.45577596E-02
  0.63697934E-02  0.21411698E-01 -0.97297711E-02
 -0.62106221E-02 -0.14395275E-02  0.33643779E-02
 -0.73411831E-02  0.25529325E-02  0.81033536E-02
  0.17192202E-01 -0.99920313E-03 -0.42287984E-03
 -0.16828383E-01 -0.26255347E-02 -0.96884448E-02
  0.14280384E-01 -0.67673105E-02 -0.17250967E-02
 -0.64031649E-02  0.39574905E-02  0.69385457E-02
  0.61773037E-02  0.17832786E-01 -0.15757526E-01
  0.19452560E-02 -0.14144938E-01 -0.15645338E-01
 -0.31638203E-02 -0.29982987E-01 -0.14278955E-01
 -0.45232068E-02  0.57243266E-02 -0.65090181E-02
  0.57355822E-02  0.69482773E-02 -0.12062360E-01
 -0.94302787E-02 -0.13858808E-01  0.11917215E-01
 -0.11412302E-01 -0.82154839E-02  0.39632932E-03
 -0.91638804E-03  0.98171184E-02 -0.18365347E-02
 -0.36348357E-02 -0.19902429E-01 -0.39788362E-02
 -0.14494885E-03  0.51296643E-02  0.83350975E-02
 -0.27575708E-02 -0.63053712E-02  0.18708249E-01
 -0.17344653E-02  0.98744228E-02  0.69309433E-02
 -0.16196808E-01  0.10393477E-01  0.13238087E-01
 -0.81201763E-02  0.33180158E-02 -0.61225644E-02
  0.52308350E-02 -0.45637609E-02 -0.41436062E-02
  0.13891352E-01 -0.78799635E-02  0.72032436E-02
 -0.48232249E-03 -0.11007955E-01  0.55742480E-02
  0.12681874E-01 -0.38823831E-02  0.97744902E-02
 -0.17493670E-02  0.17946902E-03  0.92326359E-02
 -0.14287863E-01  0.58506204E-02  0.18582332E-01
 -0.11156023E-01  0.17037032E-01  0.41255935E-02
 -0.98067092E-02  0.46105236E-03  0.11349760E-01
 -0.16881090E-02 -0.18022342E-02  0.15225274E-01
  0.70416100E-02 -0.24610363E-02  0.59055584E-02
  0.89199031E-02 -0.28160759E-02 -0.81749174E-02
  0.17182608E-01  0.24177899E-01  0.13190237E-01
  0.38471129E-02  0.38692688E-02  0.12004364E-01
  0.79672548E-02  0.29454597E-02  0.97744778E-02
 -0.12842774E-01  0.14572609E-01 -0.13185799E-01
  0.46138682E-02  0.63446227E-02  0.13971151E-01
 -0.28298193E-02  0.26202180E-02 -0.15030488E-01
 -0.76493318E-02  0.10454900E-01  0.22404577E-02
 -0.18023196E-01 -0.10137472E-01 -0.11129624E-01
  0.12900349E-01 -0.15361444E-01  0.73194348E-02
  0.12209391E-01  0.21675681E-01  0.60707085E-02
 -0.70523947E-02 -0.17193257E-02  0.15131547E-02
  0.76723174E-02  0.89905068E-02 -0.57595199E-02
  0.22923550E-03 -0.10129115E-01  0.11630813E-01
  0.66678735E-02 -0.18920514E-01 -0.63020711E-02
  0.53567796E-02 -0.43547675E-02 -0.62760898E-02
  0.76480911E-02  0.49263553E-02 -0.11941973E-01
 -0.61076502E-02 -0.15669338E-01  0.41557479E-02
 -0.12232264E-01 -0.20566784E-01  0.12890926E-01
  0.10473626E-01  0.12716339E-01  0.18130123E-02
 
           1
  0.500000000000000     
  0.97568594E+00  0.41325912E-02 -0.67485570E-17  0.00000000E+00
  0.75992091E-01  0.10851264E+00  0.17780269E-01
  0.26570173E+00  0.25391542E-01  0.88952679E-01
  0.21980939E+00  0.25391489E+00  0.21127866E+00
  0.27544746E+00  0.16231608E+00  0.97801917E+00
  0.74979720E-01  0.26870672E+00  0.12314131E+00
  0.20171591E+00  0.89179584E-01  0.20320882E+00
  0.62707853E-01  0.10158530E+00  0.30690346E+00
  0.28747769E+00  0.12382092E+00  0.49606081E+00
  0.97882552E-01  0.19914299E+00  0.57017957E+00
  0.24284041E+00  0.18981285E+00  0.36324848E+00
  0.62782198E-01  0.25812824E+00  0.41806276E+00
  0.14573390E+00  0.69650159E-01  0.61286150E+00
  0.26374100E-01  0.10984129E+00  0.68387299E+00
  0.26899095E+00  0.10276249E+00  0.76582419E+00
  0.17309190E+00  0.27161917E+00  0.93585427E+00
  0.24791080E+00  0.22137415E+00  0.66674239E+00
  0.74759599E-01  0.30205989E+00  0.75431995E+00
  0.13492191E+00  0.63818687E-01  0.86853249E+00
  0.48794175E-01  0.41027085E+00  0.22368388E-01
  0.27792210E+00  0.39178809E+00  0.10551728E+00
  0.24295822E+00  0.63944219E+00  0.24530455E+00
  0.24759724E+00  0.50875512E+00  0.56565389E-04
  0.65425944E-01  0.54651609E+00  0.13249018E+00
  0.14625695E+00  0.42988949E+00  0.21756804E+00
  0.87754166E-01  0.50019904E+00  0.32681152E+00
  0.26034130E+00  0.37474678E+00  0.48634845E+00
  0.20225169E+00  0.57985907E+00  0.50585416E+00
  0.28365806E+00  0.50245448E+00  0.34621026E+00
  0.70793003E-01  0.66165193E+00  0.39909548E+00
  0.97307862E-01  0.37162227E+00  0.56223637E+00
  0.12224347E+00  0.52355992E+00  0.67153631E+00
  0.24593406E+00  0.32672968E+00  0.78533404E+00
  0.14440026E+00  0.57996598E+00  0.90707854E+00
  0.26298198E+00  0.47921593E+00  0.63515024E+00
  0.31259974E-01  0.58177521E+00  0.76811486E+00
  0.11252827E+00  0.37492356E+00  0.91609431E+00
  0.11557104E+00  0.83112463E+00  0.36655957E-01
  0.24993823E+00  0.72752277E+00  0.10009995E+00
  0.17746439E+00  0.88485975E+00  0.19696224E+00
  0.26902530E+00  0.85826617E+00  0.97531523E+00
  0.64101102E-01  0.92640774E+00  0.14877973E+00
  0.15677319E+00  0.73295901E+00  0.22947668E+00
  0.48744748E-01  0.81105180E+00  0.35507542E+00
  0.27155299E+00  0.74650980E+00  0.40343926E+00
  0.19265258E+00  0.93478874E+00  0.58331344E+00
  0.22701642E+00  0.86691389E+00  0.35858454E+00
  0.92093746E-01  0.13448844E-01  0.44915703E+00
  0.14937915E+00  0.71715843E+00  0.54388565E+00
  0.42685798E-01  0.78112626E+00  0.62673198E+00
  0.21051517E+00  0.72142316E+00  0.76776209E+00
  0.20505258E+00  0.95142557E+00  0.90521659E+00
  0.22440081E+00  0.84474098E+00  0.66889539E+00
  0.61281202E-01  0.90572833E+00  0.76587666E+00
  0.10346550E+00  0.72909129E+00  0.89127421E+00
  0.45918534E+00  0.20260314E+00  0.27958352E-02
  0.55896055E+00  0.10892830E+00  0.59894629E-01
  0.53606445E+00  0.28966847E+00  0.26861928E+00
  0.64361602E+00  0.20886998E+00  0.92594719E+00