SiO2_quartz_beta (1 1 1)dikte(1)vakuum(1
   1.00000000000000     
    21.9847000000000001    0.0000000000000000    0.0000000000000000
     7.2479246599999998   21.0393606300000009    0.0000000000000000
     0.0000003900000000    0.0000002800000000   21.5065999999999988
   Si   O 
    81   162
Direct
  0.4076030447905062  0.3942506353295965  0.1479805199722731
  0.5353721825496885  0.3045613183410928  0.1045851388576243
  0.2609372806602530  0.4131136101596552  0.1077187790987015
  0.6045152136979275  0.2374303808486624  0.2320548563070029
  0.7325691407185314  0.2028227734952824  0.1511394979820942
  0.4589397819953352  0.2750576867068675  0.2217888857107848
  0.2002510026963048  0.5287070230272003  0.0108456931621491
  0.9318067972550830  0.0291874129543189  0.2613394092120701
  0.0513380692654716  0.5513808552409218 -0.0059601043932288
  0.2742919999634190  0.5948672647514147  0.2351783122267331
  0.3935459177960213  0.5397734305593228  0.1473157542329167
  0.1339349203744453  0.6035497490464704  0.2189487778928393
  0.8717859381451138  0.8465514836776544  0.0183203738260640
  0.5924686181651988  0.3712340825815716  0.2590480470842757
  0.7186664657998392  0.8806711842101936 -0.0072283175930603
  0.0723107618565572  0.7197063226953125  0.1457713237029179
  0.2013096653944657  0.6443296308566175  0.0905441739679701
  0.9282113871202912  0.7338287065176139  0.1156232199211414
  0.5377855618245070  0.1850693312664886  0.0267221721459581
  0.2376482537199651  0.7352813508280597  0.2567517243859120
  0.3880741096643697  0.2106221909387672 -0.0061180425714778
  0.7430473292569342  0.0587077801905150  0.1501392559522483
  0.8696962817016615 -0.0275877106701143  0.0902627154687848
  0.5998822285930592  0.0693422567307899  0.1167139257504642
  0.9313111500128843  0.8961096510136063  0.2347021032412876
  0.0496583042952093  0.8596182625663988  0.1451294550237566
  0.7831575783593997  0.9421889779042922  0.2240067001302919
  0.2728650853423895  0.2891526453111536  0.2447436827354519
  0.3703692384097606  0.2201112873576292  0.1426995269851264
  0.1241790503272071  0.2825794797329088  0.2326606679288399
  0.8677458207269763  0.5247856275927482  0.0147769556886686
  0.5794038871517441  0.0623227271930056  0.2577132845134785
  0.7175061352709268  0.5493910042154783 -0.0034655076615582
  0.0729702909348551  0.3884983236919026  0.1469205798266398
  0.2117669441492170  0.3079804104580414  0.1254396646623322
  0.9296144461581169  0.4078363773658523  0.1103000060644456
  0.5320826404604730  0.8604552552505560  0.0182276191435739
  0.2311508137642326  0.4392824383598745  0.2480400134686549
  0.3856489682132136  0.8770881535459624 -0.0019550319178986
  0.7376356327113508  0.7245559895063154  0.1478277612015672
  0.8671792911276446  0.6397888006102409  0.1042271992375292
  0.5937179960573089  0.7416363659252125  0.1139856976883227
  0.9409824082705686  0.5930536924946388  0.2320193558309251
  0.0593536672684957  0.5334840206378160  0.1450201168435880
  0.7967051738701674  0.6075599180431549  0.2212307210389255
  0.4016445551463880  0.0706973832965652  0.1463740719391005
  0.5297462683067882 -0.0106254869517444  0.0909631137717327
  0.2691052299305312  0.0577269972223791  0.1210702852171853
  0.6037103235789346  0.9218154123106324  0.2367607279987640
  0.7147505046599012  0.8695991362567056  0.1419313222678484
  0.4501174941739329  0.9534194906338758  0.2286639712597635
  0.2034134315675558  0.1885030956008493  0.0551809184913790
  0.9099448512021361  0.7324682898496788  0.2593641709238469
  0.0668715045731191  0.2130638762485677  0.0077431481999404
  0.5258944491441722  0.5257931896455406  0.0513909278255984
  0.2691117892051546  0.0304771084241273  0.2679322269825092
  0.3942918694759328  0.5490308897728664 -0.0023556575350438
  0.7377116931233381  0.3937329638564124  0.1545331957695322
  0.8653534907411977  0.3092296662310086  0.1008418839944976
  0.6007598544877455  0.3918974469325970  0.1187773901671653
  0.9452475552459039  0.2805964502411742  0.2490926983038304
  0.0594132849150586  0.2084528359385582  0.1593813869734987
  0.8011696634794667  0.2780548517767873  0.2341935035690191
  0.4054523239303878  0.7263185975215073  0.1470420022715296
  0.5345401092490277  0.6433543942502508  0.1128636349284911
  0.2610545650009514  0.7398274222975011  0.1157226209351342
  0.6132061967997595  0.6109328882829709  0.2427825014612504
  0.7207150735538770  0.5402236796105513  0.1480096345994164
  0.4609358672324877  0.6130278269303787  0.2246509314528536
  0.2055454952155692  0.8508858751244005  0.0214976790906036
  0.9059766029955322  0.4291667445475816  0.2519125455802639
  0.0554433336797465  0.8788025871081412 -0.0030347806399429
  0.2619660538347231  0.9007384544511785  0.2320903486715531
  0.3887896286100612  0.8704586660496161  0.1488428972755400
  0.1209449159739266  0.9401359610120711  0.2242683429810360
  0.8784983984529452  0.1758267067958788  0.0282012879619068
  0.5722906356336386  0.7573861625174694  0.2548958933052846
  0.7282268325148181  0.2140500387963105  0.0026611894570267
  0.0708908644514444  0.0631955361718518  0.1529324340663633
  0.1965284654898613  0.9721643821533893  0.1001637518631201
  0.9306345165913487  0.0651719677610490  0.1215120204082542
  0.2217133342884726  0.4329727015733631  0.1712275494914896
  0.3380951549344853  0.3998273390247312  0.1152615269219720
  0.4136367775087868  0.4642680333332171  0.1584886986832375
  0.4306658185370221  0.2406297944590364  0.1657027311870400
  0.4221076138438126  0.3526600783312601  0.2114638948922267
  0.4634967269402185  0.3559500155702922  0.0974754395115952
  0.4698395837702005  0.2478007382321222  0.2886444630852669
  0.5385186484245191  0.2661829379085491  0.1772721622624361
  0.6043486689531006  0.2960209285400771  0.2771851350544792
  0.6214399563699514  0.1148989608789806  0.2400557386278217
  0.6104175249845920  0.1739965541995581  0.2774333821904265
  0.6613603642816823  0.2271415310648534  0.1815875528284014
  0.0503352243176814  0.5482395580871238  0.0693245477946796
  0.1317982674244043  0.5388430505405466 -0.0224239209835966
  0.2174591920670853  0.5900514786604775  0.0352457134099832
  0.2460655025191817  0.3505410904795114  0.0816705604925183
  0.2332797974706033  0.4693294066195104  0.0539293743955619
  0.8933891501908844  0.0782821286314570  0.3137448962638944
  0.1440704045518960  0.5782415997645315  0.2883651052023688
  0.2072371007998151  0.6094498024567639  0.1839676073008981
  0.2746755468240045  0.6570526086630180  0.2735131662790722
  0.2864393414810928  0.4781898925110300  0.2421475076881274
  0.2821727436922650  0.5340460485266695  0.2837147035171989
  0.3264647913314172  0.5787775098309526  0.1789547801933115
  0.7058761636640566  0.8757760494044077  0.0662525365884260
  0.8000199839221178  0.8637197883936780 -0.0143713573166685
  0.8821523107614498  0.9130366147587814  0.0443976193081372
  0.9200451126612196  0.6725085635215771  0.0790346269931580
  0.8868260287700362  0.7983396055282219  0.0781676699267384
  0.5451069522096862  0.4282052442729140  0.2984457910869575
  0.8945158293455607  0.7292799401980270  0.1812590806900704
  0.0022124442912598  0.7322496324969141  0.1153432858190170
  0.0892797699822027  0.7842343383824762  0.1561176177327184
  0.1177618410256933  0.5584306670621787  0.1645128242823768
  0.0838954582940235  0.6759461401992289  0.2067277996434920
  0.1245254258828632  0.6794667335330857  0.0921484439171317
  0.3685254073151538  0.2256804545337475  0.0665558611881472
  0.4697167299671762  0.1902572889420856 -0.0074539142533540
  0.5444791891256130  0.2505676105112222  0.0512385940332768
  0.5897097216261122  0.0124013468429777  0.0702768808872399
  0.5547007717247586  0.1358714986406122  0.0852217121820407
  0.1729286108673699  0.7667638998739619  0.2917007527109734
  0.5660591260674823  0.0568846043336120  0.1793069551342001
  0.6744468731074552  0.0651564089468192  0.1165643034399742
  0.7562144658974587  0.1258038933939633  0.1550749615138325
  0.7596466122155295  0.9089231936270447  0.1648362202658656
  0.7530268334658252  0.0197684874832178  0.2137363414935867
  0.7974005870682066  0.0183239208226034  0.0971973301446548
  0.7774300360586971  0.9182773066441098  0.2903336960966760
  0.8619715699229538  0.9302667134163448  0.1950627707709150
  0.9485154325414362  0.9523795634363541  0.2713409923821866
  0.9661395450537107  0.7726158627606622  0.2532397988522708
  0.9405963058845704  0.8357824252546183  0.2823778277535150
  0.9765876754992500  0.8736856195223009  0.1720329084213918
  0.1213447633303231  0.2611724120286443  0.3005442405547437
  0.1994472088005511  0.2947411500834002  0.1988921907633227
  0.2663485123172424  0.3625072847125060  0.2624065128338086
  0.3242700924982175  0.0539217144049419  0.2986909713574418
  0.3050822340648593  0.2355052900603795  0.2903711437545726
  0.3005024420465319  0.2715736404984000  0.1659415696237924
  0.7118943585568555  0.5485872478466387  0.0715609445493167
  0.7983965920200720  0.5346870777415857 -0.0191377894089718
  0.8773102852826478  0.5858416655629878  0.0486864976276298
  0.9185411275125760  0.3428035517630362  0.0827328556564769
  0.8922744863749225  0.4640263335742685  0.0604487382776907
  0.5203259945400647  0.0912885911076655  0.3009045942600597
  0.8923443247089594  0.4257886105217710  0.1747186279874119
  0.0059027766984652  0.3971350317772337  0.1093021504093653
  0.0777679418847151  0.4590720258044425  0.1558215894701286
  0.1214181547615795  0.2307247953887582  0.1760136520654000
  0.0749635985304651  0.3533152483991590  0.2127999223443726
  0.1344808795873606  0.3451434906479234  0.1064629202907582
  0.3785607569369108  0.8855877419288056  0.0731018846532625
  0.4663840674372126  0.8631103978100261 -0.0195611775039465
  0.5323787303918248  0.9279364791061638  0.0493053366896664
  0.5814816449832182  0.6786500520722447  0.0885396836255411
  0.5600909187261490  0.8034900332875841  0.0673259402827774
  0.1677093934871318  0.4747554162342364  0.2860610571738688
  0.5557712318739234  0.7572055937740895  0.1783925015087170
  0.6696291054048810  0.7292664492177983  0.1142096908401377
  0.7416714836666680  0.7951125450282960  0.1585483480287735
  0.7814865740293688  0.5641667717904880  0.1641062454827811
  0.7512971162209150  0.6823347463136559  0.2115323459517722
  0.7939170192422070  0.6853797367028661  0.0968329706106743
  0.8049456878223405  0.5788448826189825  0.2889750224193542
  0.8731214192344291  0.6121603294953551  0.1809015515679678
  0.9465313189522099  0.6533512338240216  0.2702276991009698
  0.9518373789680999  0.4786320591063477  0.2375882114568227
  0.9459957069116580  0.5330660537635212  0.2803146253043425
  0.9926080842768343  0.5747485011356411  0.1761181110027870
  0.2507885088075764  0.0408383075580104  0.1898609062122882
  0.3414309257296685  0.0574517530801268  0.1091121964242012
  0.3809012171045313  0.1463451409106216  0.1584115584935987
  0.4337323070096790  0.9095075578510907  0.1727018920693030
  0.4181078123051819  0.0286961791470157  0.2070520664481230
  0.4617473116760234  0.0451467672063492  0.0946165371148119
  0.4305482573767352  0.9418744570373806  0.2966278967606261
  0.5287025883508518  0.9430742260579152  0.2066736044050607
  0.6180807802955770  0.9840273907183896  0.2679458126255626
  0.6215252083217975  0.8037674418899260  0.2409854243231547
  0.6210935357649647  0.8574451038068591  0.2863371463735730
  0.6421105750269582  0.9015240419974309  0.1692032719423780
  0.0534299472551980  0.2145527109880435  0.0816475136225785
  0.1530215920339668  0.1895751861285788  0.0021018913694744
  0.2267395334302533  0.2448354865945781  0.0739719061885842
  0.2508360393322177  0.0047433177711026  0.0781897765500501
  0.2221008045831354  0.1293316353150950  0.0995268161394388
  0.8537270311831650  0.7629765769378186  0.3051615114385098
  0.3814086989396712  0.5538206903255650  0.0719066878966030
  0.4821921282131191  0.5249986939795865 -0.0077293398239220
  0.5523594770395416  0.5812634115730302  0.0676082040442226
  0.5857362472882449  0.3382746339708902  0.0750557734152093
  0.5560404883730578  0.4606394299180332  0.0870406269113709
  0.2392408103755375  0.0950285027286095  0.3062953578469692
  0.5720217342960101  0.3738312916861817  0.1828538110068577
  0.6726498670641440  0.3942349068403591  0.1173501682649843
  0.7348427487401401  0.4660364161231073  0.1634303313606929
  0.7829868266863357  0.2347915342419647  0.1771348328556386
  0.7540161538626649  0.3521039258095649  0.2166676465140746
  0.7935225260541321  0.3593847027682586  0.1012159674166337
  0.7963387673696178  0.2513052177086861  0.3006829020045452
  0.8743177725343508  0.2838601820064325  0.2051229252690673
  0.9427080119618546  0.3536489010529900  0.2670154692419709
  0.9684827216203022  0.0687761122465287  0.2995810326358632
  0.9663937206710446  0.2315625711496022  0.3042999862552638
  0.9934998108071573  0.2555058058399857  0.1867466652617658
  0.2332384437793479  0.7246936699322797  0.1796983408950287
  0.3365490128784697  0.7342541680266553  0.1110458312354688
  0.4176744087615638  0.7937753939103914  0.1562330255241148
  0.4510915480162521  0.5673761761619399  0.1641401181684910
  0.4110350298794683  0.6865226452695480  0.2111679808819506
  0.4608921578644068  0.6827178436474457  0.0998074871303446
  0.4669703003172748  0.5855130621366398  0.2908349812437210
  0.5372634083580737  0.6213020015814781  0.1890808415165735
  0.6126653537190679  0.6808891314792477  0.2617836259088457
  0.6436197722887214  0.4091603919218805  0.2641408089868053
  0.6122442131372235  0.5622197703952856  0.2948417855562182
  0.6554677413530595  0.5863758164547445  0.1787753486342109
  0.0417678181324851  0.8746696167257324  0.0708184844024062
  0.1352730476154500  0.8571751413055636 -0.0096694739391433
  0.2037510295569316  0.9215144567409378  0.0442776268723730
  0.2499001779430489  0.6823069423962148  0.0699924436013628
  0.2178018951409679  0.8071848622788788  0.0846956452582869
  0.8446385716200518  0.4591733278697496  0.2944720625422816
  0.1419149959923217  0.9163245915335583  0.2916721817672635
  0.1971780803203258  0.9304975298561072  0.1765511965320690
  0.2606525176434166  0.9588354505103022  0.2791588081708288
  0.2903946644762170  0.7775042543603635  0.2453510213331267
  0.2753736844006000  0.8381229125779522  0.2801892323979505
  0.3174927477153336  0.8915304559682854  0.1790332291074702
  0.7199684279239139  0.2239729738061730  0.0777391757661111
  0.8086198932546408  0.1881259153873533 -0.0099611819934520
  0.8763961139101847  0.2473316827484473  0.0577375908812701
  0.9219887250735308  0.0082494988665400  0.0754208181279535
  0.8841072968771798  0.1307061958017557  0.0921665240570133
  0.5117535858282569  0.7822012395348112  0.2979489069414223
  0.9148340841946200  0.0443695641065035  0.1893367455256937
  0.0027444520160139  0.0681484853318576  0.1190168823840199
  0.0767724383421379  0.1320415003691055  0.1701607597423781
  0.0836871405156021  0.9063407494974751  0.1757032691596132
  0.0858206117126282  0.0173653994293275  0.2134551476374939
  0.1274864920938563  0.0279559336247616  0.1013814368034297
 
  0.00000000E+00  0.00000000E+00  0.00000000E+00
  0.00000000E+00  0.00000000E+00  0.00000000E+00
  0.00000000E+00  0.00000000E+00  0.00000000E+00
  0.00000000E+00  0.00000000E+00  0.00000000E+00
  0.00000000E+00  0.00000000E+00  0.00000000E+00
  0.00000000E+00  0.00000000E+00  0.00000000E+00
  0.00000000E+00  0.00000000E+00  0.00000000E+00
  0.00000000E+00  0.00000000E+00  0.00000000E+00
  0.00000000E+00  0.00000000E+00  0.00000000E+00
  0.00000000E+00  0.00000000E+00  0.00000000E+00
  0.00000000E+00  0.00000000E+00  0.00000000E+00
  0.00000000E+00  0.00000000E+00  0.00000000E+00
  0.00000000E+00  0.00000000E+00  0.00000000E+00
  0.00000000E+00  0.00000000E+00  0.00000000E+00
  0.00000000E+00  0.00000000E+00  0.00000000E+00
  0.00000000E+00  0.00000000E+00  0.00000000E+00
  0.00000000E+00  0.00000000E+00  0.00000000E+00
  0.00000000E+00  0.00000000E+00  0.00000000E+00
  0.00000000E+00  0.00000000E+00  0.00000000E+00
  0.00000000E+00  0.00000000E+00  0.00000000E+00
  0.00000000E+00  0.00000000E+00  0.00000000E+00
  0.00000000E+00  0.00000000E+00  0.00000000E+00
  0.00000000E+00  0.00000000E+00  0.00000000E+00
  0.00000000E+00  0.00000000E+00  0.00000000E+00
  0.00000000E+00  0.00000000E+00  0.00000000E+00
  0.00000000E+00  0.00000000E+00  0.00000000E+00
  0.00000000E+00  0.00000000E+00  0.00000000E+00
  0.00000000E+00  0.00000000E+00  0.00000000E+00
  0.00000000E+00  0.00000000E+00  0.00000000E+00
  0.00000000E+00  0.00000000E+00  0.00000000E+00
  0.00000000E+00  0.00000000E+00  0.00000000E+00
  0.00000000E+00  0.00000000E+00  0.00000000E+00
  0.00000000E+00  0.00000000E+00  0.00000000E+00
  0.00000000E+00  0.00000000E+00  0.00000000E+00
  0.00000000E+00  0.00000000E+00  0.00000000E+00
  0.00000000E+00  0.00000000E+00  0.00000000E+00
  0.00000000E+00  0.00000000E+00  0.00000000E+00
  0.00000000E+00  0.00000000E+00  0.00000000E+00
  0.00000000E+00  0.00000000E+00  0.00000000E+00
  0.00000000E+00  0.00000000E+00  0.00000000E+00
  0.00000000E+00  0.00000000E+00  0.00000000E+00
  0.00000000E+00  0.00000000E+00  0.00000000E+00
  0.00000000E+00  0.00000000E+00  0.00000000E+00
  0.00000000E+00  0.00000000E+00  0.00000000E+00
  0.00000000E+00  0.00000000E+00  0.00000000E+00
  0.00000000E+00  0.00000000E+00  0.00000000E+00
  0.00000000E+00  0.00000000E+00  0.00000000E+00
  0.00000000E+00  0.00000000E+00  0.00000000E+00
  0.00000000E+00  0.00000000E+00  0.00000000E+00
  0.00000000E+00  0.00000000E+00  0.00000000E+00
  0.00000000E+00  0.00000000E+00  0.00000000E+00
  0.00000000E+00  0.00000000E+00  0.00000000E+00
  0.00000000E+00  0.00000000E+00  0.00000000E+00
  0.00000000E+00  0.00000000E+00  0.00000000E+00
  0.00000000E+00  0.00000000E+00  0.00000000E+00
  0.00000000E+00  0.00000000E+00  0.00000000E+00
  0.00000000E+00  0.00000000E+00  0.00000000E+00
  0.00000000E+00  0.00000000E+00  0.00000000E+00
  0.00000000E+00  0.00000000E+00  0.00000000E+00
  0.00000000E+00  0.00000000E+00  0.00000000E+00
  0.00000000E+00  0.00000000E+00  0.00000000E+00
  0.00000000E+00  0.00000000E+00  0.00000000E+00
  0.00000000E+00  0.00000000E+00  0.00000000E+00
  0.00000000E+00  0.00000000E+00  0.00000000E+00
  0.00000000E+00  0.00000000E+00  0.00000000E+00
  0.00000000E+00  0.00000000E+00  0.00000000E+00
  0.00000000E+00  0.00000000E+00  0.00000000E+00
  0.00000000E+00  0.00000000E+00  0.00000000E+00
  0.00000000E+00  0.00000000E+00  0.00000000E+00
  0.00000000E+00  0.00000000E+00  0.00000000E+00
  0.00000000E+00  0.00000000E+00  0.00000000E+00
  0.00000000E+00  0.00000000E+00  0.00000000E+00
  0.00000000E+00  0.00000000E+00  0.00000000E+00
  0.00000000E+00  0.00000000E+00  0.00000000E+00
  0.00000000E+00  0.00000000E+00  0.00000000E+00
  0.00000000E+00  0.00000000E+00  0.00000000E+00
  0.00000000E+00  0.00000000E+00  0.00000000E+00
  0.00000000E+00  0.00000000E+00  0.00000000E+00
  0.00000000E+00  0.00000000E+00  0.00000000E+00
  0.00000000E+00  0.00000000E+00  0.00000000E+00
  0.00000000E+00  0.00000000E+00  0.00000000E+00
  0.00000000E+00  0.00000000E+00  0.00000000E+00
  0.00000000E+00  0.00000000E+00  0.00000000E+00
  0.00000000E+00  0.00000000E+00  0.00000000E+00
  0.00000000E+00  0.00000000E+00  0.00000000E+00
  0.00000000E+00  0.00000000E+00  0.00000000E+00
  0.00000000E+00  0.00000000E+00  0.00000000E+00
  0.00000000E+00  0.00000000E+00  0.00000000E+00
  0.00000000E+00  0.00000000E+00  0.00000000E+00
  0.00000000E+00  0.00000000E+00  0.00000000E+00
  0.00000000E+00  0.00000000E+00  0.00000000E+00
  0.00000000E+00  0.00000000E+00  0.00000000E+00
  0.00000000E+00  0.00000000E+00  0.00000000E+00
  0.00000000E+00  0.00000000E+00  0.00000000E+00
  0.00000000E+00  0.00000000E+00  0.00000000E+00
  0.00000000E+00  0.00000000E+00  0.00000000E+00
  0.00000000E+00  0.00000000E+00  0.00000000E+00
  0.00000000E+00  0.00000000E+00  0.00000000E+00
  0.00000000E+00  0.00000000E+00  0.00000000E+00
  0.00000000E+00  0.00000000E+00  0.00000000E+00
  0.00000000E+00  0.00000000E+00  0.00000000E+00
  0.00000000E+00  0.00000000E+00  0.00000000E+00
  0.00000000E+00  0.00000000E+00  0.00000000E+00
  0.00000000E+00  0.00000000E+00  0.00000000E+00
  0.00000000E+00  0.00000000E+00  0.00000000E+00
  0.00000000E+00  0.00000000E+00  0.00000000E+00
  0.00000000E+00  0.00000000E+00  0.00000000E+00
  0.00000000E+00  0.00000000E+00  0.00000000E+00
  0.00000000E+00  0.00000000E+00  0.00000000E+00
  0.00000000E+00  0.00000000E+00  0.00000000E+00
  0.00000000E+00  0.00000000E+00  0.00000000E+00
  0.00000000E+00  0.00000000E+00  0.00000000E+00
  0.00000000E+00  0.00000000E+00  0.00000000E+00
  0.00000000E+00  0.00000000E+00  0.00000000E+00
  0.00000000E+00  0.00000000E+00  0.00000000E+00
  0.00000000E+00  0.00000000E+00  0.00000000E+00
  0.00000000E+00  0.00000000E+00  0.00000000E+00
  0.00000000E+00  0.00000000E+00  0.00000000E+00
  0.00000000E+00  0.00000000E+00  0.00000000E+00
  0.00000000E+00  0.00000000E+00  0.00000000E+00
  0.00000000E+00  0.00000000E+00  0.00000000E+00
  0.00000000E+00  0.00000000E+00  0.00000000E+00
  0.00000000E+00  0.00000000E+00  0.00000000E+00
  0.00000000E+00  0.00000000E+00  0.00000000E+00
  0.00000000E+00  0.00000000E+00  0.00000000E+00
  0.00000000E+00  0.00000000E+00  0.00000000E+00
  0.00000000E+00  0.00000000E+00  0.00000000E+00
  0.00000000E+00  0.00000000E+00  0.00000000E+00
  0.00000000E+00  0.00000000E+00  0.00000000E+00
  0.00000000E+00  0.00000000E+00  0.00000000E+00
  0.00000000E+00  0.00000000E+00  0.00000000E+00
  0.00000000E+00  0.00000000E+00  0.00000000E+00
  0.00000000E+00  0.00000000E+00  0.00000000E+00
  0.00000000E+00  0.00000000E+00  0.00000000E+00
  0.00000000E+00  0.00000000E+00  0.00000000E+00
  0.00000000E+00  0.00000000E+00  0.00000000E+00
  0.00000000E+00  0.00000000E+00  0.00000000E+00
  0.00000000E+00  0.00000000E+00  0.00000000E+00
  0.00000000E+00  0.00000000E+00  0.00000000E+00
  0.00000000E+00  0.00000000E+00  0.00000000E+00
  0.00000000E+00  0.00000000E+00  0.00000000E+00
  0.00000000E+00  0.00000000E+00  0.00000000E+00
  0.00000000E+00  0.00000000E+00  0.00000000E+00
  0.00000000E+00  0.00000000E+00  0.00000000E+00
  0.00000000E+00  0.00000000E+00  0.00000000E+00
  0.00000000E+00  0.00000000E+00  0.00000000E+00
  0.00000000E+00  0.00000000E+00  0.00000000E+00
  0.00000000E+00  0.00000000E+00  0.00000000E+00
  0.00000000E+00  0.00000000E+00  0.00000000E+00
  0.00000000E+00  0.00000000E+00  0.00000000E+00
  0.00000000E+00  0.00000000E+00  0.00000000E+00
  0.00000000E+00  0.00000000E+00  0.00000000E+00
  0.00000000E+00  0.00000000E+00  0.00000000E+00
  0.00000000E+00  0.00000000E+00  0.00000000E+00
  0.00000000E+00  0.00000000E+00  0.00000000E+00
  0.00000000E+00  0.00000000E+00  0.00000000E+00
  0.00000000E+00  0.00000000E+00  0.00000000E+00
  0.00000000E+00  0.00000000E+00  0.00000000E+00
  0.00000000E+00  0.00000000E+00  0.00000000E+00
  0.00000000E+00  0.00000000E+00  0.00000000E+00
  0.00000000E+00  0.00000000E+00  0.00000000E+00
  0.00000000E+00  0.00000000E+00  0.00000000E+00
  0.00000000E+00  0.00000000E+00  0.00000000E+00
  0.00000000E+00  0.00000000E+00  0.00000000E+00
  0.00000000E+00  0.00000000E+00  0.00000000E+00
  0.00000000E+00  0.00000000E+00  0.00000000E+00
  0.00000000E+00  0.00000000E+00  0.00000000E+00
  0.00000000E+00  0.00000000E+00  0.00000000E+00
  0.00000000E+00  0.00000000E+00  0.00000000E+00
  0.00000000E+00  0.00000000E+00  0.00000000E+00
  0.00000000E+00  0.00000000E+00  0.00000000E+00
  0.00000000E+00  0.00000000E+00  0.00000000E+00
  0.00000000E+00  0.00000000E+00  0.00000000E+00
  0.00000000E+00  0.00000000E+00  0.00000000E+00
  0.00000000E+00  0.00000000E+00  0.00000000E+00
  0.00000000E+00  0.00000000E+00  0.00000000E+00
  0.00000000E+00  0.00000000E+00  0.00000000E+00
  0.00000000E+00  0.00000000E+00  0.00000000E+00
  0.00000000E+00  0.00000000E+00  0.00000000E+00
  0.00000000E+00  0.00000000E+00  0.00000000E+00
  0.00000000E+00  0.00000000E+00  0.00000000E+00
  0.00000000E+00  0.00000000E+00  0.00000000E+00
  0.00000000E+00  0.00000000E+00  0.00000000E+00
  0.00000000E+00  0.00000000E+00  0.00000000E+00
  0.00000000E+00  0.00000000E+00  0.00000000E+00
  0.00000000E+00  0.00000000E+00  0.00000000E+00
  0.00000000E+00  0.00000000E+00  0.00000000E+00
  0.00000000E+00  0.00000000E+00  0.00000000E+00
  0.00000000E+00  0.00000000E+00  0.00000000E+00
  0.00000000E+00  0.00000000E+00  0.00000000E+00
  0.00000000E+00  0.00000000E+00  0.00000000E+00
  0.00000000E+00  0.00000000E+00  0.00000000E+00
  0.00000000E+00  0.00000000E+00  0.00000000E+00
  0.00000000E+00  0.00000000E+00  0.00000000E+00
  0.00000000E+00  0.00000000E+00  0.00000000E+00
  0.00000000E+00  0.00000000E+00  0.00000000E+00
  0.00000000E+00  0.00000000E+00  0.00000000E+00
  0.00000000E+00  0.00000000E+00  0.00000000E+00
  0.00000000E+00  0.00000000E+00  0.00000000E+00
  0.00000000E+00  0.00000000E+00  0.00000000E+00
  0.00000000E+00  0.00000000E+00  0.00000000E+00
  0.00000000E+00  0.00000000E+00  0.00000000E+00
  0.00000000E+00  0.00000000E+00  0.00000000E+00
  0.00000000E+00  0.00000000E+00  0.00000000E+00
  0.00000000E+00  0.00000000E+00  0.00000000E+00
  0.00000000E+00  0.00000000E+00  0.00000000E+00
  0.00000000E+00  0.00000000E+00  0.00000000E+00
  0.00000000E+00  0.00000000E+00  0.00000000E+00
  0.00000000E+00  0.00000000E+00  0.00000000E+00
  0.00000000E+00  0.00000000E+00  0.00000000E+00
  0.00000000E+00  0.00000000E+00  0.00000000E+00
  0.00000000E+00  0.00000000E+00  0.00000000E+00
  0.00000000E+00  0.00000000E+00  0.00000000E+00
  0.00000000E+00  0.00000000E+00  0.00000000E+00
  0.00000000E+00  0.00000000E+00  0.00000000E+00
  0.00000000E+00  0.00000000E+00  0.00000000E+00
  0.00000000E+00  0.00000000E+00  0.00000000E+00
  0.00000000E+00  0.00000000E+00  0.00000000E+00
  0.00000000E+00  0.00000000E+00  0.00000000E+00
  0.00000000E+00  0.00000000E+00  0.00000000E+00
  0.00000000E+00  0.00000000E+00  0.00000000E+00
  0.00000000E+00  0.00000000E+00  0.00000000E+00
  0.00000000E+00  0.00000000E+00  0.00000000E+00
  0.00000000E+00  0.00000000E+00  0.00000000E+00
  0.00000000E+00  0.00000000E+00  0.00000000E+00
  0.00000000E+00  0.00000000E+00  0.00000000E+00
  0.00000000E+00  0.00000000E+00  0.00000000E+00
  0.00000000E+00  0.00000000E+00  0.00000000E+00
  0.00000000E+00  0.00000000E+00  0.00000000E+00
  0.00000000E+00  0.00000000E+00  0.00000000E+00
  0.00000000E+00  0.00000000E+00  0.00000000E+00
  0.00000000E+00  0.00000000E+00  0.00000000E+00
  0.00000000E+00  0.00000000E+00  0.00000000E+00
  0.00000000E+00  0.00000000E+00  0.00000000E+00
  0.00000000E+00  0.00000000E+00  0.00000000E+00
  0.00000000E+00  0.00000000E+00  0.00000000E+00
  0.00000000E+00  0.00000000E+00  0.00000000E+00
  0.00000000E+00  0.00000000E+00  0.00000000E+00
  0.00000000E+00  0.00000000E+00  0.00000000E+00
  0.00000000E+00  0.00000000E+00  0.00000000E+00
  0.00000000E+00  0.00000000E+00  0.00000000E+00
  0.00000000E+00  0.00000000E+00  0.00000000E+00
  0.00000000E+00  0.00000000E+00  0.00000000E+00
