SiO2_quartz_beta (1 1 1)dikte(1)vakuum(15)vlak(3)
    1.0
            21.98470000 0.00000000 0.00000000 
            7.24792466 21.03936063 0.00000000 
            0.00000039 0.00000028 21.50660000 
  81 162
Direct
        0.40414000 0.39136000 0.13095000
        0.52156000 0.33796000 0.04369000
        0.25833000 0.41587000 0.11207000
        0.60183000 0.25171000 0.23853000
        0.71925000 0.19832000 0.15127000
        0.45602000 0.27622000 0.21965000
        0.22224000 0.51985000 0.03197000
        0.91694000 0.05867000 0.25884000
        0.07642000 0.54436000 0.01309000
        0.26323000 0.58876000 0.23567000
        0.38066000 0.53537000 0.14841000
        0.11742000 0.61327000 0.21678000
        0.88364000 0.85690000 0.02911000
        0.57834000 0.39572000 0.25598000
        0.73783000 0.88141000 0.01022000
        0.08133000 0.71726000 0.13668000
        0.19875000 0.66386000 0.04942000
        0.93552000 0.74177000 0.11780000
        0.54505000 0.19395000 0.02624000
        0.23975000 0.73277000 0.25312000
        0.39923000 0.21846000 0.00736000
        0.74274000 0.05431000 0.13382000
        0.86016000 0.00091000 0.04656000
        0.59692000 0.07882000 0.11493000
        0.94042000 0.91466000 0.24139000
        0.05785000 0.86127000 0.15413000
        0.79461000 0.93917000 0.22251000
        0.26323000 0.25543000 0.23567000
        0.38066000 0.20203000 0.14841000
        0.11742000 0.27994000 0.21678000
        0.88364000 0.52357000 0.02911000
        0.57834000 0.06239000 0.25598000
        0.73783000 0.54808000 0.01022000
        0.08133000 0.38392000 0.13668000
        0.19875000 0.33053000 0.04942000
        0.93552000 0.40844000 0.11780000
        0.54505000 0.86062000 0.02624000
        0.23975000 0.39944000 0.25312000
        0.39923000 0.88513000 0.00736000
        0.74274000 0.72097000 0.13382000
        0.86016000 0.66758000 0.04656000
        0.59692000 0.74549000 0.11493000
        0.94042000 0.58133000 0.24139000
        0.05785000 0.52793000 0.15413000
        0.79461000 0.60584000 0.22251000
        0.40414000 0.05802000 0.13095000
        0.52156000 0.00463000 0.04369000
        0.25833000 0.08254000 0.11207000
        0.60183000 0.91838000 0.23853000
        0.71925000 0.86498000 0.15127000
        0.45602000 0.94289000 0.21965000
        0.22224000 0.18652000 0.03197000
        0.91694000 0.72534000 0.25884000
        0.07642000 0.21103000 0.01309000
        0.54505000 0.52728000 0.02624000
        0.23975000 0.06611000 0.25312000
        0.39923000 0.55180000 0.00736000
        0.74274000 0.38764000 0.13382000
        0.86016000 0.33425000 0.04656000
        0.59692000 0.41215000 0.11493000
        0.94042000 0.24799000 0.24139000
        0.05785000 0.19460000 0.15413000
        0.79461000 0.27251000 0.22251000
        0.40414000 0.72469000 0.13095000
        0.52156000 0.67130000 0.04369000
        0.25833000 0.74920000 0.11207000
        0.60183000 0.58504000 0.23853000
        0.71925000 0.53165000 0.15127000
        0.45602000 0.60956000 0.21965000
        0.22224000 0.85318000 0.03197000
        0.91694000 0.39201000 0.25884000
        0.07642000 0.87770000 0.01309000
        0.26323000 0.92209000 0.23567000
        0.38066000 0.86870000 0.14841000
        0.11742000 0.94661000 0.21678000
        0.88364000 0.19023000 0.02911000
        0.57834000 0.72906000 0.25598000
        0.73783000 0.21475000 0.01022000
        0.08133000 0.05059000 0.13668000
        0.19875000 0.99720000 0.04942000
        0.93552000 0.07510000 0.11780000
        0.23109000 0.42552000 0.18244000
        0.33569000 0.39009000 0.10471000
        0.40589000 0.45902000 0.15663000
        0.43628000 0.22127000 0.18418000
        0.42562000 0.34731000 0.19210000
        0.44936000 0.36900000 0.07037000
        0.42878000 0.28587000 0.29002000
        0.53338000 0.25044000 0.21229000
        0.60357000 0.31938000 0.26421000
        0.63397000 0.08162000 0.29175000
        0.62331000 0.20767000 0.29968000
        0.64705000 0.22935000 0.17795000
        0.04919000 0.55401000 0.08346000
        0.15379000 0.51858000 0.00573000
        0.22398000 0.58752000 0.05765000
        0.25438000 0.34976000 0.08519000
        0.24371000 0.47581000 0.09312000
        0.84474000 0.08971000 0.28552000
        0.09019000 0.62292000 0.28716000
        0.19479000 0.58749000 0.20942000
        0.26498000 0.65643000 0.26135000
        0.29538000 0.41867000 0.28889000
        0.28471000 0.54472000 0.29681000
        0.30846000 0.56640000 0.17508000
        0.71059000 0.89106000 0.08059000
        0.81519000 0.85563000 0.00286000
        0.88539000 0.92457000 0.05478000
        0.91578000 0.68681000 0.08233000
        0.90512000 0.81286000 0.09025000
        0.50615000 0.42676000 0.28266000
        0.90828000 0.75142000 0.18817000
        0.01288000 0.71599000 0.11044000
        0.08307000 0.78492000 0.16236000
        0.11347000 0.54717000 0.18990000
        0.10281000 0.67321000 0.19783000
        0.12655000 0.69490000 0.07610000
        0.37200000 0.22811000 0.07773000
        0.47660000 0.19268000 0.00000000
        0.54679000 0.26162000 0.05192000
        0.57719000 0.02386000 0.07947000
        0.56653000 0.14991000 0.08739000
        0.16755000 0.76381000 0.27980000
        0.56969000 0.08847000 0.18531000
        0.67429000 0.05304000 0.10758000
        0.74448000 0.12197000 0.15950000
        0.77488000 0.88422000 0.18704000
        0.76421000 0.01026000 0.19496000
        0.78796000 0.03195000 0.07323000
        0.76738000 0.94882000 0.29288000
        0.87198000 0.91339000 0.21515000
        0.94217000 0.98233000 0.26707000
        0.97256000 0.74457000 0.29462000
        0.96190000 0.87062000 0.30254000
        0.98565000 0.89230000 0.18081000
        0.09019000 0.28959000 0.28716000
        0.19479000 0.25416000 0.20942000
        0.26498000 0.32309000 0.26135000
        0.29538000 0.08534000 0.28889000
        0.28471000 0.21139000 0.29681000
        0.30846000 0.23307000 0.17508000
        0.71059000 0.55773000 0.08059000
        0.81519000 0.52230000 0.00286000
        0.88539000 0.59123000 0.05478000
        0.91578000 0.35348000 0.08233000
        0.90512000 0.47953000 0.09025000
        0.50615000 0.09343000 0.28266000
        0.90828000 0.41808000 0.18817000
        0.01288000 0.38266000 0.11044000
        0.08307000 0.45159000 0.16236000
        0.11347000 0.21383000 0.18990000
        0.10281000 0.33988000 0.19783000
        0.12655000 0.36157000 0.07610000
        0.37200000 0.89478000 0.07773000
        0.47660000 0.85935000 0.00000000
        0.54679000 0.92828000 0.05192000
        0.57719000 0.69053000 0.07947000
        0.56653000 0.81658000 0.08739000
        0.16755000 0.43048000 0.27980000
        0.56969000 0.75513000 0.18531000
        0.67429000 0.71971000 0.10758000
        0.74448000 0.78864000 0.15950000
        0.77488000 0.55088000 0.18704000
        0.76421000 0.67693000 0.19496000
        0.78796000 0.69862000 0.07323000
        0.76738000 0.61549000 0.29288000
        0.87198000 0.58006000 0.21515000
        0.94217000 0.64899000 0.26707000
        0.97256000 0.41124000 0.29462000
        0.96190000 0.53729000 0.30254000
        0.98565000 0.55897000 0.18081000
        0.23109000 0.09218000 0.18244000
        0.33569000 0.05676000 0.10471000
        0.40589000 0.12569000 0.15663000
        0.43628000 0.88793000 0.18418000
        0.42562000 0.01398000 0.19210000
        0.44936000 0.03567000 0.07037000
        0.42878000 0.95254000 0.29002000
        0.53338000 0.91711000 0.21229000
        0.60357000 0.98604000 0.26421000
        0.63397000 0.74829000 0.29175000
        0.62331000 0.87434000 0.29968000
        0.64705000 0.89602000 0.17795000
        0.04919000 0.22068000 0.08346000
        0.15379000 0.18525000 0.00573000
        0.22398000 0.25418000 0.05765000
        0.25438000 0.01643000 0.08519000
        0.24371000 0.14248000 0.09312000
        0.84474000 0.75638000 0.28552000
        0.37200000 0.56145000 0.07773000
        0.47660000 0.52602000 0.00000000
        0.54679000 0.59495000 0.05192000
        0.57719000 0.35719000 0.07947000
        0.56653000 0.48324000 0.08739000
        0.16755000 0.09714000 0.27980000
        0.56969000 0.42180000 0.18531000
        0.67429000 0.38637000 0.10758000
        0.74448000 0.45531000 0.15950000
        0.77488000 0.21755000 0.18704000
        0.76421000 0.34360000 0.19496000
        0.78796000 0.36528000 0.07323000
        0.76738000 0.28216000 0.29288000
        0.87198000 0.24673000 0.21515000
        0.94217000 0.31566000 0.26707000
        0.97256000 0.07790000 0.29462000
        0.96190000 0.20395000 0.30254000
        0.98565000 0.22564000 0.18081000
        0.23109000 0.75885000 0.18244000
        0.33569000 0.72342000 0.10471000
        0.40589000 0.79236000 0.15663000
        0.43628000 0.55460000 0.18418000
        0.42562000 0.68065000 0.19210000
        0.44936000 0.70233000 0.07037000
        0.42878000 0.61921000 0.29002000
        0.53338000 0.58378000 0.21229000
        0.60357000 0.65271000 0.26421000
        0.63397000 0.41495000 0.29175000
        0.62331000 0.54100000 0.29968000
        0.64705000 0.56269000 0.17795000
        0.04919000 0.88735000 0.08346000
        0.15379000 0.85192000 0.00573000
        0.22398000 0.92085000 0.05765000
        0.25438000 0.68309000 0.08519000
        0.24371000 0.80914000 0.09312000
        0.84474000 0.42304000 0.28552000
        0.09019000 0.95626000 0.28716000
        0.19479000 0.92083000 0.20942000
        0.26498000 0.98976000 0.26135000
        0.29538000 0.75200000 0.28889000
        0.28471000 0.87805000 0.29681000
        0.30846000 0.89974000 0.17508000
        0.71059000 0.22440000 0.08059000
        0.81519000 0.18897000 0.00286000
        0.88539000 0.25790000 0.05478000
        0.91578000 0.02014000 0.08233000
        0.90512000 0.14619000 0.09025000
        0.50615000 0.76009000 0.28266000
        0.90828000 0.08475000 0.18817000
        0.01288000 0.04932000 0.11044000
        0.08307000 0.11826000 0.16236000
        0.11347000 0.88050000 0.18990000
        0.10281000 0.00655000 0.19783000
        0.12655000 0.02823000 0.07610000

