(Si O2)81  (P1) ~ 3x3x3Supersel (VASP)  
   1.00000000000000     
    14.9916000000000000    0.0000000000000000    0.0000000000000000
    -7.4957993700000003   12.9831068100000007    0.0000000000000000
     0.0000006000000000    0.0000010400000000   16.3712997000000016
   O    Si
   162    81
Direct
  0.0859211112593523  0.1739045297022509  0.9805865938962518
  0.2561130358112232  0.9803436707740967  0.0764564761191131
  0.1840834871800535  0.2270577110847130  0.2416074753458699
  0.2975853384991670  0.1849561467380786  0.0141857178457347
  0.0370785086768003  0.2347813529474578  0.1360805278767287
  0.1599641683736336  0.0692894158681010  0.1972130516904404
  0.0447003724028613  0.0903250637714389  0.3365777583500362
  0.3081054337016188  0.0803358293515750  0.4797351671829431
  0.1712976827255601  0.2230609099546856  0.5263798265692955
  0.2294307272915394  0.1518567815149262  0.3781767486224270
  0.1107964557832667  0.2759560827818178  0.4078940050888254
  0.1689563677690837  0.0848191715788773  0.5560771310171366
  0.0885991348135665  0.1920190200309487  0.6639055755755698
  0.3105077966655169  0.0971939293933462  0.7983649019089833
  0.2308409015752003  0.2705454500233326  0.8981619825071790
  0.2709281195708006  0.2256566326660570  0.6572233413318936
  0.0876505329889785  0.2810352176401480  0.7878817345212381
  0.1260629285436400  0.0650990647496077  0.8732902615758266
  0.0136349206971831  0.4414585516288607  0.9873831980353684
  0.2326364083797267  0.3678451719128252  0.1019865638544975
  0.1543952119811185  0.5619879604630652  0.2149233314701523
  0.2128788170529502  0.5245513060908129  0.0334642600179379
  0.0767699385907635  0.6141047268646901  0.1089862615316411
  0.1165025908636895  0.3630469361559682  0.2507744976338248
  0.0084424631341539  0.4511398673601740  0.3131155373620446
  0.2984803869962422  0.4152963711114158  0.4456727054075388
  0.2122942768433134  0.6065820149885086  0.5451499909198781
  0.2201131826526582  0.5047452359785882  0.3718178707106696
  0.1157162083759081  0.6169540244046915  0.4098047028437333
  0.1198347545600734  0.3823861718397544  0.5440339365050558
  0.1226016492465749  0.5001017679634476  0.6904609613612448
  0.2664834161140350  0.4052275820464598  0.7740795827985659
  0.2323522677886414  0.6020452655733977  0.8781468785612222
  0.2957286295311294  0.5622322862608761  0.6690475937856388
  0.0865108539527403  0.6142925759775713  0.7555052659295576
  0.1562693718412307  0.4021318875431815  0.9094969626126115
  0.0461046316436575  0.8039267769342449  0.9819458816653550
  0.2825954204965107  0.7891152267469838  0.1661761033944990
  0.1339145536743713  0.8521017584229954  0.1765703668526070
  0.2664535675263602  0.8566937274666928  0.9889928649691981
  0.0458008321588267  0.9367169146540405  0.1015740159747898
  0.1072345982513229  0.7076762794917827  0.2625752510166234
  0.0373627235349285  0.8095299993315984  0.3438762018628750
  0.3045478538875486  0.7564098908055195  0.4433755237494379
  0.2311093188669154  0.9373130593998753  0.5671810984945793
  0.2250485499007807  0.8636202162732528  0.3419501775967920
  0.0789692816789732  0.9265878479714845  0.4819520770844788
  0.1252426712332576  0.7280603788910245  0.5356982132683997
  0.0537301652806513  0.8346201242565855  0.6238161987059671
  0.2810303745675187  0.7947359824557354  0.8240830969308529
  0.1914642484174896  0.9169069193070827  0.8901291548681701
  0.2317737896742215  0.8417080207035946  0.6830255183073659
  0.0792887234465929  0.9307723359386882  0.7793518419133548
  0.1028232742257476  0.7022265955639195  0.9053981224552176
  0.4078786417711247  0.1012851413101628  0.9772293417172107
  0.6488910527990791  0.0858280730082302  0.1609008929879336
  0.5445191020619888  0.2281097008197377  0.2030851668189592
  0.6121619042734480  0.2175627798343544  0.9814138781685448
  0.4088615317039512  0.1725788553833747  0.1307343711557427
  0.5141462803628887  0.0427149151224503  0.2634611984633830
  0.3950310207202959  0.1304559852936047  0.3204963307855373
  0.6240643110028158  0.0861027636584012  0.4987939002955955
  0.5457476985293122  0.2448832588943830  0.5249028995438895
  0.5762422853970428  0.1954268442221062  0.3656333024031210
  0.4487342195368966  0.2688684574124475  0.4110925206265799
  0.4542466094422116  0.0590690204089424  0.5700646908136766
  0.4179403078715146  0.1783580131479459  0.6708304346725982
  0.5934005066731617  0.0501212365749897  0.7522045096876432
  0.4804347027947102  0.2519842071058442  0.9013762075279069
  0.6024780373697731  0.1787124802922677  0.6489617428456679
  0.4035050318562559  0.3220166532436288  0.7897421996136803
  0.5276167923141174  0.1010649050181402  0.8617197122154804
  0.3931093596136674  0.4894438728658297  0.0155598436539708
  0.6113727301877399  0.3839716352710453  0.1025851377795625
  0.4696443795402591  0.5498751699198883  0.2013421297577174
  0.5723551062989359  0.5035636722075927  0.0276500067273001
  0.3666791168016728  0.6075155273596616  0.1108268503980161
  0.4891766138094068  0.3819526264987721  0.2232269119959593
  0.3734138498660592  0.4456676227771331  0.3143021820079352
  0.6565202163634209  0.4378743936522000  0.4532376022180278
  0.5331046520507021  0.5800023016755143  0.5403839844942584
  0.5670448166884351  0.5238475583828865  0.3291395525560334
  0.3758545159815956  0.5908991637458099  0.4379284332245993
  0.4605851815923581  0.3816901205064344  0.5376688504836696
  0.4415407787412070  0.4753331900049351  0.6772335698662170
  0.6238801011964122  0.4154173061623045  0.8006148305377102
  0.4759333475233281  0.5608654684126044  0.8768148608721861
  0.5948403869676665  0.4784294141014493  0.6440420928735734
  0.4256020551303402  0.6279954348975382  0.7442241984886355
  0.5209576236081226  0.4328535706616536  0.9037651785330134
  0.3768631822047957  0.8067034905568596  0.9988624337226707
  0.5807100701650141  0.7265882576843512  0.1041154632000114
  0.5294788628334239  0.9043212554476411  0.1900069177671340
  0.5701142151456207  0.8632705976808202  0.9797819301299775
  0.4136598219693060  0.9724726842293701  0.0997689460395177
  0.5125631148648745  0.7556612927034854  0.2441435707902641
  0.3751108562881069  0.8618829195168651  0.2973028344614975
  0.5774803100127250  0.7307245666217008  0.4246700816222418
  0.4843977150281530  0.9035030451143758  0.5676135726669265
  0.5694759082894204  0.8804007842069522  0.3604789205066580
  0.4107637472953114  0.9418648127851871  0.4228650203985226
  0.4595152458311951  0.6907275130099951  0.5663550649327423
  0.3583905625098909  0.7649031767494093  0.6763010638968109
  0.6240907537324178  0.7386237152476332  0.7896473014920077
  0.4735897401957265  0.8734344538068182  0.8541238868255897
  0.5580632682037987  0.7792893333224415  0.6667209321888237
  0.3816123191773201  0.9498050037242839  0.7373670094201801
  0.4318285371128321  0.6935532188047857  0.8890623255765263
  0.7830372497036456  0.1652157913130415  0.0198593139131732
  0.9374185389923022  0.0510726100143536  0.0798406398938910
  0.9032468285357146  0.2933863825187715  0.2440157745251561
  0.9848484734027909  0.2431025781573103  0.9912418470547366
  0.7518956091437978  0.2756372451299768  0.1372815604712747
  0.8390922042528087  0.0748771376722049  0.2347858283467037
  0.7242268889771556  0.1233017306126115  0.3418139642739248
  0.9542600755815684  0.0553202973289665  0.4699917100921660
  0.8161383984033620  0.2357137443094811  0.5247432752021288
  0.9246331264073367  0.1758840783148409  0.3649699998863257
  0.7741378014762832  0.2961301231044875  0.4009798037061255
  0.7861866938794946  0.0405012701136634  0.5643042517432291
  0.7136531660317770  0.1129691774358618  0.6332681754069582
  0.9014035984463361  0.1205319725884009  0.7778292048590140
  0.8653662069287988  0.2834959857506679  0.8802140211024901
  0.9469051475071429  0.2372984318001145  0.6422377516961437
  0.7185464664572081  0.2609583359447535  0.7535318092606732
  0.8576291644812192  0.0803761275677229  0.9231932168895953
  0.7407178294613653  0.4916362772593651  0.9756432711546671
  0.9526224701832717  0.4455495482887354  0.1356190544218087
  0.8817961647458455  0.6236609228172458  0.2223699750949018
  0.9085610094837756  0.5590689808741615  0.0077062884408084
  0.7407848279284868  0.5924911168381795  0.1391677348294272
  0.8242876525203698  0.4425062013342723  0.2479636621718168
  0.7385358152904845  0.5046722429922345  0.3270925126326027
  0.9380599951833788  0.4580287616027507  0.4957503359799533
  0.8120604369655596  0.5598935627363146  0.5419254975669224
  0.9279631826389182  0.5769128692565871  0.3713127123545393
  0.7209350461532710  0.6339953949111332  0.4527825016819090
  0.7524276245980579  0.3573498465728828  0.5580093697289850
  0.7745277634500735  0.4801718400962500  0.7030351394412858
  0.9340383907729763  0.3981036999817336  0.7470687107642455
  0.9277461056089226  0.6253987137419573  0.8495424805208118
  0.9623375533586973  0.5409667579515274  0.6260397465473412
  0.7183873989298930  0.5898640830688670  0.7797028937844527
  0.8199941135090135  0.4118817307825345  0.8628464617075469
  0.7311446572121436  0.8245954187583752  0.9578025713257602
  0.8708837622026533  0.7618050646486589  0.0881770030417967
  0.8764643335267088  0.9235947790303936  0.2015388215260760
  0.9030297362742670  0.8422311995405084  0.9622905081058778
  0.7305022304727338  0.9247824085534048  0.0930890067373258
  0.8285486947521143  0.7389703483167311  0.2845181215754114
  0.7323821454790336  0.8322216905892692  0.3189101316000181
  0.8960546978658247  0.7230857593248504  0.4544335559849613
  0.8747720832141690  0.9314622053167212  0.5765936989978945
  0.9436019695337058  0.9162607221992956  0.3741467265134523
  0.7341602503858130  0.9098569711409850  0.4650218510473640
  0.8130303481904452  0.7387130696900110  0.5879760314928556
  0.7516067565193494  0.8696742478426779  0.6884698381704901
  0.9570292357507350  0.7163554079519758  0.7271571859335316
  0.8457525864212408  0.9381942244833354  0.8454078327540588
  0.9231001183034223  0.8685989382438084  0.7160867891991687
  0.6888271966354925  0.9691184077788323  0.7971662277537117
  0.8409213018082256  0.7394283332969996  0.8533031262824079
  0.1633974446229647  0.9792240341639076  0.1427742057689695
  0.1521306991205938  0.1235076182880524  0.2822298909141450
  0.0148333048122237  0.1832069770105797  0.0485704045901175
  0.1988087320977517  0.0076253034825351  0.5223232594428306
  0.1726589874235443  0.1723667124001708  0.6087103775300566
  0.0194683626838799  0.1604577118841971  0.3827215406463716
  0.1834329902900008  0.9990504343985208  0.8280645812458753
  0.1769677339330867  0.1561341014259941  0.9396471106173970
  0.9999871703984289  0.1906207032830630  0.7298826820442036
  0.1542531920841411  0.2996497597921963  0.1847793098663741
  0.1110890762973412  0.4551028036430418  0.2857369760510085
  0.9821579121156213  0.5238560732834550  0.0473888028541712
  0.1827470087509671  0.3350921121987045  0.4843525355421384
  0.1956014176397435  0.4928174608036489  0.6081555329724188
  0.9924028889779100  0.5146156106233930  0.4035316019530118
  0.1922615787787895  0.3370500085251230  0.8507760285488881
  0.1530388209257244  0.4928705316208788  0.9531466046658241
  0.0204934835765334  0.5083683659432826  0.7123078158973430
  0.1744153389071315  0.6731844071276004  0.1911364545549230
  0.1268620521825913  0.8198920751574647  0.2845212056095024
  0.9693120993974745  0.8254284888015683  0.0381706806594208
  0.2026863094091278  0.6809470400056692  0.4987793427540047
  0.1619187992852166  0.8288773202671693  0.6064483858331784
  0.9846482401261878  0.8464258679413403  0.4256122135550885
  0.1760423565786741  0.6710645776543358  0.8260177301226446
  0.1541238487704315  0.8153112897768128  0.9456722085264981
  0.0143422142037966  0.8418578118003064  0.7258623597197805
  0.5154662305615818  0.9986257871990635  0.1672627117321653
  0.5073226784159846  0.1473599337322873  0.2847057915620972
  0.3294126602169042  0.1022264978464053  0.0478750310713540
  0.5065286151033049  0.0041843574610664  0.5054437631357799
  0.5068166593254825  0.1656622873989651  0.6010255466782861
  0.3493870630634382  0.1642350223582995  0.4054202500515330
  0.4900466682469740  0.9934670716985532  0.7936703188283992
  0.5101401528323584  0.1662865040352989  0.9350354551107363
  0.3377514626800647  0.1977810737481686  0.7321112937614087
  0.5040186294399580  0.3072987049608960  0.1670746742785911
  0.4713631905505521  0.4671189366269133  0.2665148029570531
  0.3129204567464208  0.4816564205974319  0.0831039202607392
  0.5261916284437312  0.3408979953255385  0.4889139095164521
  0.5166406348640619  0.4914718182602753  0.6041099325941406
  0.3189042188287436  0.4948298159266201  0.3852061140799594
  0.4989291529765603  0.3370300278480328  0.8446214683942179
  0.4851119864698405  0.4979341093785307  0.9483228773121888
  0.3692052018431786  0.5044883137462876  0.7153065691278979
  0.4760547119154623  0.6570479976914767  0.1734433231362473
  0.5029993139031119  0.8579845488355420  0.2759921505126393
  0.3353335939385429  0.8528627953421544  0.0558425214380464
  0.4919191438622856  0.6578711567595373  0.4874789012385294
  0.4385640421749228  0.7790215620052383  0.6012991564693957
  0.3115220701722918  0.8510084603771862  0.3822957467583223
  0.5017018733995043  0.6688438663425432  0.8228126796946987
  0.4531328456609696  0.8092373451357530  0.9345368681000427
  0.3112649056571888  0.8323195302234119  0.7308619771774336
  0.8654602030111654  0.0006281109692913  0.1528843163585494
  0.8386015472127047  0.1634892409527289  0.3043753208473224
  0.6977917344006839  0.1715882192300250  0.0795035587472245
  0.8372756863399861  0.9932092850487997  0.5073668297916751
  0.8284288717363598  0.1658928722522872  0.5952033815244079
  0.6727597668914794  0.1830449108551732  0.4165536402269613
  0.8061751881879607  0.0137384585873523  0.8296782359421094
  0.8759634092815569  0.1992061219715204  0.9447041075846278
  0.6695136964629882  0.1604210562026079  0.7022208679252540
  0.8463599817926853  0.3560397939301595  0.2040159527351107
  0.8545171014812470  0.5463606273953914  0.2935975076732265
  0.6689265827083781  0.4900253504441640  0.0592058317144395
  0.8231928733847508  0.3499519911333284  0.4906305773570869
  0.8270675078810398  0.4764679326509593  0.6072190830533324
  0.6577374360475868  0.5263844050366067  0.3831131174701840
  0.8387331374553040  0.3322903709282010  0.8075611765906930
  0.8405499527968011  0.5170897964786499  0.9191836932636034
  0.6669086248971337  0.4848496359679684  0.7261874194065951
  0.8232821093252841  0.6771455359156989  0.1896105320947344
  0.8476625171741019  0.8502998903781140  0.2974269077476002
  0.6694851746086760  0.8404332953582411  0.0385873254293545
  0.8268798520932276  0.6715699734525987  0.5215000136689414
  0.8470228147175528  0.8557311760754903  0.6430752501572276
  0.6641870413049019  0.8646618277839365  0.3857917377782661
  0.8341910053040280  0.6579562804680932  0.8000590296863482
  0.8313012806821614  0.8350180849542472  0.8941483226895188
  0.6425695279997710  0.8303412968198786  0.7241048309293318
 
  0.25579410E-01 -0.15196643E-01  0.17144376E-01
  0.13355532E-01 -0.14748203E-01 -0.72786409E-02
 -0.13741376E-01  0.24040689E-01 -0.22585273E-02
  0.19926936E-01  0.19416962E-01  0.58308419E-02
  0.86586430E-02  0.18476065E-01  0.70391560E-02
  0.88648309E-02 -0.22481739E-01 -0.12820736E-01
  0.94972144E-02 -0.44868063E-02  0.34023985E-01
  0.50646651E-02  0.29404611E-03  0.14158527E-02
  0.18189831E-02 -0.13359840E-01  0.50160660E-02
 -0.93133012E-02  0.89698072E-02  0.10441560E-01
 -0.13176750E-01  0.18714896E-01 -0.68855565E-02
  0.13313579E-01  0.87191671E-02  0.10280722E-01
 -0.33407236E-01  0.15658901E-01 -0.10871052E-02
 -0.97193677E-02 -0.16209647E-01  0.24976505E-02
 -0.10602616E-01 -0.10984137E-01  0.12211935E-01
 -0.62372354E-02 -0.18569932E-03 -0.22277066E-01
  0.22505199E-01  0.35634630E-02 -0.38296685E-02
  0.94569565E-02 -0.19436572E-02  0.94712381E-03
 -0.11374871E-02  0.23156968E-01 -0.28235145E-02
  0.17962935E-01 -0.74862303E-02 -0.23555454E-01
  0.20902172E-01  0.11740756E-03 -0.61717461E-02
 -0.93031387E-02 -0.17927743E-01  0.15551997E-01
  0.17957554E-02  0.56923814E-02 -0.58305042E-02
  0.33253866E-02 -0.27137401E-01 -0.14167379E-01
 -0.39118282E-02 -0.14998063E-01  0.83298030E-02
  0.75734760E-02  0.20930398E-01 -0.12544683E-01
  0.18961171E-01 -0.29795612E-02 -0.10838976E-02
  0.25239548E-02 -0.12159182E-01 -0.15645002E-02
 -0.74338699E-02 -0.94416635E-02 -0.12808030E-01
 -0.33277897E-01  0.69356636E-02  0.12205598E-01
 -0.10562782E-01 -0.84921021E-02 -0.25373873E-01
 -0.54473420E-02 -0.14368106E-01  0.12462965E-01
 -0.58175221E-02  0.37177638E-02  0.66966935E-03
  0.11588645E-02 -0.17694476E-02  0.23556811E-01
 -0.16744848E-01 -0.65126832E-02 -0.68062258E-02
  0.12265871E-01  0.36261345E-03 -0.63868973E-02
  0.11466386E-01  0.38902595E-02 -0.85418956E-02
  0.11419869E-03  0.34833820E-02  0.86078183E-02
  0.94990752E-02 -0.39141259E-02 -0.19840449E-02
 -0.85177072E-02 -0.94439606E-02 -0.29020147E-01
  0.26242103E-01  0.21164909E-01 -0.94582022E-02
  0.69356511E-02 -0.52336698E-02 -0.13216025E-01
 -0.28052958E-01 -0.94997537E-02 -0.13402462E-01
  0.37135847E-02  0.21744237E-01 -0.80413508E-02
  0.72611840E-02  0.42876633E-02  0.15489855E-01
 -0.12783225E-01 -0.64037589E-02  0.15033047E-01
 -0.22774490E-02  0.48554196E-02 -0.29676564E-01
  0.24448037E-01  0.86878819E-02 -0.85784372E-02
  0.20260664E-01  0.15387429E-01 -0.21730950E-01
  0.10885695E-01 -0.10646905E-01  0.73014451E-02
  0.65305149E-02  0.98505913E-02  0.25238921E-01
 -0.58371306E-02 -0.29951774E-01 -0.13022897E-02
 -0.31249693E-02  0.31308610E-02  0.10132768E-02
 -0.12684385E-01  0.46892797E-02  0.21688831E-02
 -0.37918171E-02 -0.19654296E-01 -0.27279166E-02
 -0.36055180E-02 -0.27108383E-01 -0.69899852E-02
 -0.29729636E-01  0.18041113E-01 -0.34617942E-02
 -0.40234846E-02 -0.43018197E-02  0.18754397E-01
 -0.33056616E-01  0.80002642E-02  0.53388055E-02
  0.30781721E-01 -0.16653464E-01  0.80136494E-02
  0.16167922E-02  0.30378102E-01  0.79272528E-02
 -0.96473342E-02  0.51096969E-03 -0.13946612E-01
  0.14266176E-03 -0.52622266E-02  0.38219972E-01
  0.60693597E-02  0.59088324E-02 -0.26070677E-01
 -0.47561175E-02  0.13507298E-01 -0.11654152E-01
 -0.88935099E-02  0.12401746E-01 -0.20361614E-01
 -0.10070811E-01 -0.23724520E-01 -0.58962086E-02
 -0.40992251E-02  0.28007398E-01 -0.23318850E-01
 -0.46185010E-02  0.22781702E-01 -0.98192023E-02
 -0.98728440E-02  0.52035086E-02  0.41934307E-02
 -0.11994202E-01 -0.12466709E-01  0.21385855E-01
 -0.10951026E-01  0.16175270E-03 -0.50540915E-03
 -0.16875041E-01  0.24181328E-02  0.91277567E-02
  0.13014340E-01 -0.15683085E-02 -0.17733537E-01
 -0.38739382E-02 -0.72598874E-02  0.26438825E-01
 -0.13776635E-01  0.23093262E-01 -0.27158404E-01
 -0.58300523E-02 -0.73022696E-02  0.17852913E-01
 -0.11436185E-01 -0.56644489E-02  0.26349423E-02
 -0.78204287E-02  0.22504354E-01 -0.15442675E-01
  0.91066861E-02  0.68202722E-02  0.11796265E-01
  0.18993216E-01  0.25091131E-01 -0.31694927E-02
 -0.16815279E-01 -0.67972567E-02  0.26013690E-01
 -0.13466671E-02 -0.90285317E-02 -0.31130974E-01
  0.11452542E-01  0.64924982E-02 -0.11943146E-02
 -0.10935853E-02 -0.86698571E-02 -0.11838797E-01
 -0.13885455E-01 -0.10610300E-01 -0.11298098E-01
  0.14019406E-02  0.62253233E-02  0.17207774E-02
 -0.61023396E-02  0.11719376E-02 -0.24692835E-01
  0.18250303E-01  0.27587178E-02  0.31070654E-02
  0.15862314E-01 -0.31222215E-02 -0.84317873E-02
  0.26856440E-02 -0.15702735E-02  0.10471880E-01
 -0.60795091E-02  0.66039475E-02 -0.31768997E-01
  0.34302855E-02  0.75593890E-02  0.22845799E-02
  0.49503454E-02  0.86104230E-02 -0.79683184E-02
  0.74118064E-03 -0.16657074E-01  0.16976339E-01
  0.12834772E-01 -0.17672912E-01 -0.17213690E-01
  0.12669641E-03 -0.35179810E-02  0.11636521E-01
 -0.11486162E-01 -0.11322965E-02 -0.17234020E-02
  0.49418933E-02 -0.21600362E-01 -0.25373048E-02
 -0.87106521E-02  0.28023023E-01  0.46755074E-02
  0.13021087E-01  0.23937581E-03  0.97775353E-02
 -0.17340282E-02 -0.12972001E-01 -0.14178076E-01
 -0.41699310E-02 -0.97791709E-02  0.36932961E-02
  0.14785626E-01  0.63095570E-02 -0.29010883E-02
 -0.10865739E-02  0.26918299E-02 -0.12460448E-01
  0.11481479E-01 -0.11464513E-01 -0.52485332E-02
  0.21212007E-01  0.25778909E-02  0.10111346E-01
  0.85278825E-02 -0.24510070E-01 -0.76532704E-03
  0.12910639E-01 -0.18859380E-01  0.10728614E-01
  0.24468577E-01 -0.78429648E-02 -0.14093432E-01
  0.15141476E-02  0.10032099E-01 -0.78677814E-02
 -0.15763997E-01  0.12594440E-01 -0.39959418E-02
  0.14268923E-01  0.44393075E-02 -0.82233110E-02
  0.31086178E-02  0.86635811E-02 -0.18617857E-02
 -0.70610487E-02  0.58708219E-02 -0.34942471E-03
 -0.53041397E-02 -0.11798779E-01 -0.13872157E-01
 -0.32058617E-01  0.59809234E-02  0.26924976E-02
  0.89475244E-02  0.90655471E-03 -0.34653943E-01
  0.41787573E-01 -0.20404204E-01 -0.47918438E-02
  0.91137970E-03  0.56136575E-02  0.10370574E-01
 -0.78811305E-02  0.32603905E-01 -0.11915950E-01
  0.53863950E-02 -0.52592753E-02  0.13142176E-01
 -0.81273782E-02 -0.82239442E-02 -0.17108112E-01
 -0.17782767E-01 -0.56750988E-02  0.18357216E-01
  0.10024648E-01  0.11212282E-01 -0.52466740E-02
 -0.28950416E-02 -0.18659234E-01 -0.30322156E-01
 -0.41579712E-02  0.27048530E-01 -0.26274552E-02
 -0.18336287E-01 -0.10244243E-01  0.12766057E-01
  0.45226967E-02 -0.19015791E-02 -0.31064359E-01
 -0.51320871E-02  0.12551412E-01 -0.72501496E-02
 -0.44789186E-02 -0.53335414E-02 -0.24725132E-01
 -0.21089008E-01 -0.34159069E-02  0.28782296E-01
  0.77738741E-02 -0.17286135E-02  0.24132496E-01
 -0.14518973E-02  0.94699554E-02 -0.10301535E-01
 -0.11840092E-01  0.16858752E-01 -0.50099095E-03
  0.39345009E-02  0.16219890E-01  0.28040904E-01
 -0.21163864E-01 -0.25159486E-02  0.19194031E-01
 -0.22075736E-01  0.14448217E-01 -0.97637090E-02
 -0.13669223E-01 -0.13069394E-01  0.34745581E-02
  0.29519613E-02  0.19835150E-03 -0.23455734E-01
  0.20791766E-01  0.59144553E-02 -0.31254355E-01
  0.21643931E-01 -0.23434052E-01 -0.10832138E-01
  0.34280325E-02 -0.11401998E-01 -0.42909144E-02
  0.15738189E-01  0.74513930E-02 -0.13568148E-01
  0.14121407E-02  0.14952289E-02 -0.18081420E-01
 -0.13192945E-01  0.12739547E-01 -0.16492166E-01
  0.14263657E-01 -0.28632110E-02  0.11115024E-01
  0.49143721E-02  0.75395655E-02  0.12229137E-01
  0.16287572E-01 -0.21160976E-01 -0.50442754E-02
 -0.45335177E-02  0.83297583E-02 -0.29108261E-01
  0.84442929E-02  0.14275963E-01 -0.12275001E-01
  0.97522935E-02 -0.34396527E-02 -0.37237264E-01
 -0.80280869E-02  0.15420403E-02 -0.21560560E-01
 -0.45193643E-02  0.49922983E-02  0.38105100E-02
 -0.10976374E-01 -0.96474017E-02 -0.52263916E-02
 -0.99965925E-02  0.11895555E-01 -0.16293228E-01
  0.41609353E-02  0.47642639E-02  0.13765256E-01
 -0.24261334E-01 -0.10264080E-01  0.67155610E-03
 -0.17989704E-01 -0.25669108E-01  0.34357041E-01
  0.25115965E-02  0.94683318E-02 -0.10344428E-01
 -0.20042633E-01 -0.44711832E-02  0.11156698E-01
  0.22195089E-01  0.21687920E-01  0.94712124E-02
 -0.14273847E-01 -0.10322881E-01  0.23105617E-01
 -0.77070764E-02 -0.45404733E-03  0.10030881E-01
 -0.75562793E-02 -0.29515033E-02  0.50044688E-03
  0.27950390E-01 -0.33719925E-02  0.17983070E-02
 -0.70602961E-02  0.87597552E-02  0.10240001E-01
 -0.57944893E-02  0.11808235E-01 -0.32391946E-03
 -0.11400378E-02  0.24710006E-01 -0.14412943E-01
 -0.26227683E-01  0.11557179E-01  0.15313571E-01
 -0.99001198E-02  0.21089132E-02  0.33123139E-02
 -0.12759427E-02 -0.11173331E-01 -0.59887164E-03
  0.12004702E-01 -0.34537011E-02 -0.31992600E-02
  0.16186165E-01  0.17111574E-02  0.16063337E-02
 -0.34636450E-02  0.11359412E-03 -0.15764003E-01
  0.12884734E-01  0.25120818E-01 -0.60533050E-02
 -0.95035172E-02 -0.11557128E-02  0.48466655E-02
 -0.62164827E-03  0.11109362E-01 -0.89688056E-02
  0.73933337E-02  0.32126074E-02  0.15646743E-01
  0.96173165E-03 -0.39172201E-02 -0.45462404E-02
 -0.95550898E-02 -0.73177065E-02  0.11882502E-01
 -0.83166945E-02  0.85949664E-02  0.12253373E-01
  0.86658571E-02  0.22710233E-02  0.96579355E-02
  0.37774066E-02 -0.35427938E-02  0.15590326E-01
 -0.52547097E-02  0.74898118E-02 -0.10542512E-01
 -0.25171806E-02 -0.83979226E-02  0.14825400E-01
  0.13085504E-01  0.76107449E-02  0.12797856E-01
 -0.55335604E-02  0.14444490E-02  0.51059139E-02
 -0.10131936E-01 -0.20847890E-01  0.13768288E-02
 -0.15718542E-01 -0.86948312E-02  0.59110769E-03
  0.14549963E-01  0.13823930E-01 -0.54393432E-03
 -0.93761445E-02 -0.10564673E-01  0.89481154E-02
  0.23705471E-01  0.12907559E-01  0.16943766E-01
 -0.15794813E-01 -0.18104155E-01  0.11112798E-01
  0.60642926E-02  0.44407203E-02 -0.74455027E-02
  0.10684657E-01 -0.13029955E-01  0.66167022E-03
 -0.51952715E-02  0.10718288E-01  0.38573944E-02
  0.24908790E-02  0.96532617E-03 -0.95440922E-03
 -0.11348741E-01 -0.11193613E-01 -0.16978857E-01
  0.18116183E-01 -0.11517626E-01  0.19727084E-01
 -0.21323129E-01 -0.19462666E-02  0.19763391E-01
 -0.21754229E-01 -0.77158247E-02  0.93935057E-02
  0.40618495E-03 -0.12169443E-01 -0.67290049E-02
 -0.11547430E-01  0.42830251E-02 -0.11594494E-01
  0.70533182E-02 -0.11331050E-01  0.14923245E-01
  0.43020503E-02  0.85903059E-02 -0.12026006E-01
  0.10587046E-01  0.22626408E-01  0.18997026E-01
 -0.15105054E-01  0.10229178E-01 -0.38551473E-02
  0.82596513E-02  0.12650993E-01  0.52111012E-02
  0.41959463E-02  0.51829253E-02  0.14426367E-01
 -0.13714378E-01 -0.22737562E-02  0.30742720E-02
 -0.12582836E-01  0.89673267E-02 -0.14064821E-01
 -0.13108380E-02 -0.18909708E-01  0.13917219E-01
  0.76998781E-02 -0.12685165E-01 -0.13250984E-01
 -0.22611478E-02  0.66320113E-03  0.95814348E-03
  0.81047265E-02  0.54997402E-02  0.13704146E-01
 -0.20013896E-01  0.65695319E-03 -0.22411478E-02
  0.11236739E-01  0.38534878E-02 -0.23350447E-01
  0.42772191E-02 -0.66354702E-02  0.65961182E-02
 -0.77742865E-02 -0.18332555E-01  0.57964279E-02
  0.56479503E-02 -0.78401043E-02 -0.58547239E-02
  0.93190475E-02 -0.44237395E-02 -0.37149373E-02
  0.12579982E-01  0.24582037E-02  0.83758498E-02
  0.12433671E-01 -0.27834407E-01  0.45731362E-02
 -0.20375794E-01  0.15496751E-01  0.10126264E-01
  0.40010271E-02  0.60500436E-02 -0.12627536E-01
  0.15710942E-01 -0.35664877E-02  0.12277591E-01
 -0.68247697E-02  0.94799564E-02 -0.11763915E-01
  0.66106073E-02  0.76812626E-02  0.40878778E-02
  0.19880868E-02 -0.10953690E-01  0.49391289E-02
  0.92020958E-03  0.40716837E-02  0.16152988E-01
  0.47936451E-02 -0.28531694E-02  0.10872197E-01
  0.21537661E-01 -0.13861020E-01 -0.15336373E-01
  0.17764077E-01  0.68262859E-02 -0.79658941E-02
  0.18032407E-01 -0.68910262E-02  0.44484419E-02
 -0.79708772E-02  0.12920716E-01 -0.66882964E-02
 -0.98059272E-02  0.10912036E-01 -0.33300139E-03
 -0.13430995E-01  0.87759609E-02  0.65925862E-02
  0.49779297E-02 -0.21752154E-01  0.10477211E-01
  0.49878539E-02 -0.94435941E-02 -0.39940204E-02
 -0.79420598E-02  0.53305671E-02  0.29005702E-01
 -0.89838892E-02 -0.33390796E-02 -0.10875981E-01
  0.17332138E-01 -0.20548409E-01  0.11079819E-02
 
           1
  0.500000000000000     
  0.10291580E+01 -0.31463377E-02 -0.67485570E-17  0.00000000E+00
  0.86481613E-01  0.17331928E+00  0.98111020E+00
  0.25627448E+00  0.97977569E+00  0.76234177E-01
  0.18408811E+00  0.22798356E+00  0.24153850E+00
  0.29862383E+00  0.18570392E+00  0.14363799E-01
  0.37723063E-01  0.23549290E+00  0.13629551E+00
  0.15982692E+00  0.68423609E-01  0.19682149E+00
  0.44930727E-01  0.90152270E-01  0.33761689E+00
  0.30828001E+00  0.80347154E-01  0.47977841E+00
  0.17110110E+00  0.22254640E+00  0.52653302E+00
  0.22929283E+00  0.15220222E+00  0.37849565E+00
  0.11071735E+00  0.27667682E+00  0.40768371E+00
  0.16956830E+00  0.85154960E-01  0.55639112E+00
  0.87786461E-01  0.19262207E+00  0.66387237E+00
  0.30987151E+00  0.96569670E-01  0.79844118E+00
  0.23027577E+00  0.27012243E+00  0.89853495E+00
  0.27071652E+00  0.22564948E+00  0.65654297E+00
  0.88469744E-01  0.28117245E+00  0.78776477E+00
  0.12634091E+00  0.65024211E-01  0.87331919E+00
  0.14042889E-01  0.44235036E+00  0.98729696E+00
  0.23309136E+00  0.36755687E+00  0.10126715E+00
  0.15509460E+00  0.56199248E+00  0.21473484E+00
  0.21222333E+00  0.52386088E+00  0.33939237E-01
  0.76939442E-01  0.61432395E+00  0.10880819E+00
  0.11609095E+00  0.36200183E+00  0.25034181E+00
  0.80231962E-02  0.45056227E+00  0.31336994E+00
  0.29913601E+00  0.41610243E+00  0.44528958E+00
  0.21286930E+00  0.60646727E+00  0.54511689E+00
  0.21996323E+00  0.50427697E+00  0.37177009E+00
  0.11528647E+00  0.61659041E+00  0.40941353E+00
  0.11885842E+00  0.38265328E+00  0.54440671E+00
  0.12208584E+00  0.49977472E+00  0.68968601E+00
  0.26602507E+00  0.40467424E+00  0.77446022E+00
  0.23222983E+00  0.60218844E+00  0.87816733E+00
  0.29573321E+00  0.56216414E+00  0.66976705E+00
  0.85826973E-01  0.61404176E+00  0.75529740E+00
  0.15668545E+00  0.40214585E+00  0.90930190E+00
  0.46561969E-01  0.80407660E+00  0.98168500E+00
  0.28266630E+00  0.78924938E+00  0.16643900E+00
  0.13415600E+00  0.85195102E+00  0.17650977E+00
  0.26598763E+00  0.85633003E+00  0.98810655E+00
  0.47083606E-01  0.93753201E+00  0.10128515E+00
  0.10736514E+00  0.70747472E+00  0.26217162E+00
  0.36244176E-01  0.80916415E+00  0.34346687E+00
  0.30509041E+00  0.75724730E+00  0.44312993E+00
  0.23143406E+00  0.93747818E+00  0.56765418E+00
  0.22449889E+00  0.86337360E+00  0.34240931E+00
  0.78986819E-01  0.92677484E+00  0.48104572E+00
  0.12622535E+00  0.72839496E+00  0.53543622E+00
  0.54702196E-01  0.83521272E+00  0.62315251E+00
  0.28118842E+00  0.79432595E+00  0.82430609E+00
  0.19187174E+00  0.91728628E+00  0.89089998E+00
  0.23100236E+00  0.84055453E+00  0.68298574E+00
  0.79244787E-01  0.93089291E+00  0.77938279E+00
  0.10249052E+00  0.70240719E+00  0.90546436E+00
  0.40737372E+00  0.10052822E+00  0.97714603E+00
  0.64824881E+00  0.84784086E-01  0.16068741E+00
  0.54387495E+00  0.22880449E+00  0.20297944E+00
  0.61194488E+00  0.21739711E+00  0.98198666E+00