(Si O2)81  (P1) ~ 3x3x3Supersel (VASP)  
   1.00000000000000     
    14.9916000000000000    0.0000000000000000    0.0000000000000000
    -7.4957993700000003   12.9831068100000007    0.0000000000000000
     0.0000006000000000    0.0000010400000000   16.3712997000000016
   O    Si
   162    81
Direct
  0.0392381507313434  0.1773319421811100  0.9799146343989483
  0.2566629440326148  0.0966838056174330  0.0890719234654877
  0.1908466259408699  0.2643510054746244  0.2286114894312274
  0.3623284875319542  0.2338946731828069  0.9701243715972658
  0.0002989300458512  0.2275402040240289  0.1827686186534849
  0.1100043873085100  0.0759319931788350  0.1718061139058893
  0.0402883428119565  0.1109191079380401  0.3353836613370003
  0.3326317421964978  0.0852657632023389  0.4353528005898218
  0.1704123506540312  0.2672089926889846  0.5484025105416451
  0.2149330627884656  0.1299264561341609  0.3374673134606805
  0.0671378979313975  0.2910679243697251  0.4057214858344000
  0.1669549507097663  0.0841301198212283  0.5308630069681788
  0.0606907231435696  0.1168198951543253  0.6505778445337156
  0.3070317535985138  0.1104068934108803  0.8065336502607976
  0.1813894344111815  0.2227908946811729  0.8449959973116966
  0.2685598813406352  0.2031697043065332  0.6562129681074313
  0.0887168299609907  0.2849602441643287  0.7560074188139383
  0.1266662379245426  0.0584575790893750  0.9103859748816800
  0.0630671783065305  0.5083040758518761  0.0106652310537721
  0.2220419141777973  0.3435583262943012  0.0995210275387308
  0.1915083026430636  0.6145457914300623  0.2493544602651185
  0.2301934943965296  0.4827603081709409  0.9851805526122629
  0.0660963983647345  0.6304907452178650  0.1442761485187638
  0.1452730485407347  0.4167352727249911  0.1874390063633589
  0.0617641639816335  0.4419970065264741  0.3318550685751367
  0.2826788954732283  0.3760940249904117  0.4333284715603223
  0.1811683260989118  0.6001738769235359  0.5973214820377439
  0.2668399176900345  0.5143523684857684  0.3045457158019441
  0.0654390940786365  0.5499948527824872  0.4450155005316945
  0.0778542329279479  0.3802099058031215  0.5536393406180935
  0.0665638718019730  0.4472553180670802  0.7206149437189846
  0.3033544438230320  0.4356435518950862  0.8006424021165002
  0.2057094749369994  0.5991669682876501  0.8679485994848871
  0.2433711399480047  0.5051640203356901  0.6657866847499652
  0.0504183939131799  0.6039200115169400  0.7956197474184912
  0.0917522615387521  0.3712358515171851  0.8770154164540088
  0.0433645301634865  0.7818217162692317  0.9753177320015438
  0.2651372230852581  0.7328438129925611  0.1379098669131295
  0.1367796650537633  0.9622140832027037  0.2646900792431962
  0.2440797742561835  0.8471665999306269  0.0180662291822572
  0.0651329669337380  0.8984564535486615  0.1122512559143888
  0.1695148146808553  0.7789613339575319  0.2398611458683853
  0.0560212502045393  0.7714511052327817  0.3443911337771222
  0.2564629291506854  0.7091993656163039  0.4538996818029816
  0.2520166120400142  0.9599596513166395  0.5580494184270516
  0.2631785010810013  0.8749725015928391  0.3632412511964635
  0.1304774239774028  0.9362265368278498  0.4133200375020716
  0.1379309165428094  0.7336796555048106  0.5479756884374657
  0.0803653818710387  0.8234341732178727  0.6170099094697946
  0.2620574064983800  0.7195085961200761  0.7682081616257289
  0.1754545987390095  0.9496860194179176  0.9122298277107913
  0.2485779323722423  0.8641462870799819  0.6633324745870801
  0.1307257077975028  0.9636780962480447  0.7649598818529550
  0.1554997721684416  0.7256677528834580  0.9072909391882719
  0.3968705561877079  0.0743258591995372  0.9959406320421120
  0.6081542458480705  0.1039253188123579  0.1279555097803168
  0.5908073023097722  0.2623244536798544  0.2256789356651895
  0.6239741301997496  0.2778061849598091  0.0190326318413363
  0.4518742411827107  0.2465798219284750  0.1195795263972170
  0.4348892174978753  0.0512679625751955  0.2003035080874414
  0.4468586202471430  0.2162739095808124  0.3026552956130413
  0.5808702470019632  0.0023266452710536  0.4479767331776303
  0.5625668574973721  0.2605608270022747  0.5403004960048378
  0.5368700405068253  0.1052030403484686  0.3415057449095870
  0.4117395933281926  0.3025971374640998  0.4285901905114468
  0.5033706781524315  0.0682708780085942  0.5881254607169405
  0.4027405232765660  0.1678169580477467  0.6430413348773644
  0.6022378873440083  0.0720832598661048  0.7434543440388338
  0.5338423868345233  0.2864114420823984  0.8683767836315356
  0.6309517095483306  0.2606944617357109  0.6813529875559002
  0.3941796987701491  0.3101801130896870  0.7571037593897563
  0.5410125363718150  0.0836618630972355  0.9001648646058487
  0.3503049420052946  0.4252117814646030  0.0037513785004929
  0.5915097146884598  0.4192644710711883  0.1101863621390928
  0.5420151500597038  0.6084141528092403  0.2401350346821362
  0.5744181675344271  0.5239719454524189  0.9993982707159053
  0.4061130853301415  0.5558068661641377  0.1177529423380070
  0.5197262035204882  0.4214179759896415  0.2156562824737826
  0.4328011836681227  0.4764294784243448  0.3239134012967042
  0.6394949291980482  0.4396495233504618  0.4515697193388984
  0.5151765410393475  0.5594081523246390  0.5229654678940838
  0.6185529734083759  0.5148870708672936  0.3300459636402493
  0.3552261727879180  0.5688420107350984  0.4343085444731016
  0.5215616318580728  0.3755594482746957  0.5849711243048509
  0.4079542400727635  0.4723145861772634  0.6593005922680759
  0.5913295316364896  0.4335839249587301  0.7772846203044479
  0.4423049453143383  0.5776089618343689  0.9212113493827968
  0.6204860857532463  0.5743073243429597  0.6577835884019181
  0.4412107495886477  0.5951559660719100  0.7819210946469213
  0.4808813423425533  0.4324619190671493  0.8746089483285540
  0.3572982668271083  0.7623771620448236  0.9945751072306291
  0.5740234679094471  0.7185460151375715  0.1061822960803913
  0.5189892695198038  0.9264998891266139  0.2325703683138842
  0.5481841944181299  0.8271683954327547  0.9948338269385355
  0.4379647751822146  0.9298000982578637  0.0769355394835183
  0.4421361848867842  0.7409186450575379  0.2149489794170386
  0.4235879062530747  0.8309692010665632  0.3571708259496900
  0.5559137873647871  0.7606296130155966  0.4507783786880242
  0.5781224664531868  0.9289388144519229  0.5929575023237619
  0.6101495494307249  0.8303430182119582  0.3023248805998528
  0.3965652005976805  0.9094513630510137  0.4900793753765707
  0.4718112161705478  0.7025129228501257  0.5880325279808853
  0.4110637378044316  0.8325572844212181  0.6536136664177747
  0.6050870894365843  0.7365911468811578  0.8259488595243526
  0.5304792078313476  0.9383962645202469  0.8824288108559064
  0.5562846365268133  0.7810455963878118  0.7218699621833481
  0.3920674541342179  0.9678979874343593  0.7887559528835516
  0.4195286652750494  0.7323555606834454  0.8633883935098932
  0.7077581276863121  0.1488814005805582  0.9835807024710432
  0.9057677826587508  0.0542309668034494  0.0969606833604921
  0.7968404736817688  0.1990994918602774  0.2011563410668220
  0.9193709069507098  0.2316575712480952  0.0423276103312499
  0.7584889573177266  0.2957636531612136  0.0973230200328764
  0.8133512779492881  0.0356152284389974  0.2377326085205470
  0.6864069477618306  0.0643909962500756  0.3089507546020384
  0.9163904498866862  0.0773332845699608  0.4685270647396036
  0.8996956200158235  0.2713746069153100  0.5153308198732189
  0.9019827922759944  0.1839821425275167  0.3463025462088752
  0.7051394657416628  0.1931545132937719  0.4610262304358371
  0.7793013545630577  0.0604512280179181  0.5699356962905555
  0.7501927472881761  0.1838184277637325  0.6348903369076383
  0.9122464828272908  0.0878186305402815  0.7583933105612027
  0.9082587971833078  0.3000749596853577  0.8782236034328453
  0.9525560418940431  0.2020326826921132  0.6452620148478529
  0.7663532544148972  0.2464971306398096  0.7940555270984858
  0.8457696856040026  0.0838703000348705  0.9052076425463801
  0.7340972009376420  0.5215846608308643  0.9764234747942316
  0.9363657220400972  0.3904681101393337  0.1331568763547614
  0.8485603768347939  0.5968542812423082  0.2008677915145636
  0.8807702332904883  0.4878391313900872  0.0446718929123238
  0.6996407851997571  0.5971780366882324  0.1161969294528909
  0.8276335394859855  0.3925356459287047  0.2551281946867131
  0.7705123847912996  0.4915838546824479  0.3531406771955177
  0.8575111433453810  0.3795033935768581  0.3851268752012157
  0.9218177698088348  0.6246974278946875  0.5580589928963867
  0.9580641361965730  0.5590162588192349  0.3200088195338614
  0.7676075321350687  0.6660623410207247  0.4341729584346424
  0.8086699025001843  0.4074839292935577  0.5438269118659814
  0.7339760555552233  0.4895487140229842  0.6380221041729692
  0.9015326587962602  0.4446326729378394  0.8092658155375939
  0.8803313170591888  0.5954921085724858  0.8680892437905461
  0.9448341236310211  0.4952411272952953  0.6492589201805707
  0.7549478242758925  0.5704041194902696  0.7865764301532375
  0.7593291506519406  0.3760050515973338  0.9177547123624238
  0.7218226720682774  0.8087800288105150  0.9734229468968930
  0.8560291641638502  0.7376110440983097  0.0690671529748316
  0.8864198758528608  0.8890376465382896  0.1942266961957566
  0.9452712064828863  0.8756482546441047  0.9781465422839157
  0.7304918438119674  0.9099496528518999  0.0967727248968636
  0.7728873041144896  0.6890161305130048  0.2465625652781885
  0.7681975327235763  0.8601465865224562  0.3169873515835456
  0.9789505217688481  0.8141591166813900  0.4897962912317079
  0.7800417553931757  0.8884662435768920  0.5814853239351103
  0.9415827916937978  0.8495903506790757  0.3307192369584915
  0.7179585711706428  0.9255836832466056  0.4413403579253563
  0.8429436746513849  0.7436688645930397  0.5934397750839312
  0.7338242165139983  0.8009471952889921  0.7065707223700491
  0.0179082614462680  0.7562973703380809  0.7683351881783511
  0.8867417591124935  0.9415584504690059  0.8651536470462682
  0.9431401108392085  0.8790564997202946  0.6966794079008753
  0.7283871418305233  0.9681725438802122  0.7905975748144290
  0.8327230667394063  0.7635482403314209  0.8465416780497422
  0.1626636477739433  0.0054196384228266  0.1621130204379271
  0.1291033333648330  0.1302021881709106  0.2657942411967187
  0.9947686108267336  0.1846867089923599  0.0728163335417027
  0.2136390304359225  0.0199185191320664  0.4818745051064571
  0.1626000525491723  0.1721593785798604  0.5916860098143328
  0.9709960051984357  0.1470667975962931  0.3923357228364122
  0.1953116896234473  0.0299310983163047  0.8379724062630042
  0.1323509546992911  0.1576880172720736  0.9217619348380122
  0.0170468977008462  0.1881366553592785  0.7190628541573284
  0.1291834591710567  0.3036475995595841  0.1757176474751408
  0.1596400989143846  0.4871054760647318  0.2615953000483977
  0.9907336940078242  0.5043183512988156  0.0884727531899263
  0.1412996722728547  0.3291889404130113  0.4834801937402594
  0.1488333372806423  0.4888362715954379  0.6271499343363895
  0.9800821507461430  0.4884386738549020  0.3711902409740106
  0.1831596170721234  0.3371889809017052  0.8346668562801172
  0.1501650016830470  0.4885254563360341  0.9267039704889329
  0.0027664753328538  0.4973932221324938  0.7465638663920378
  0.1662055592241113  0.6834592829474678  0.2006764742215972
  0.1691396927450051  0.8724925327024132  0.3116232467745619
  0.9877492925960788  0.8253721584986113  0.0395798793618455
  0.1539316725148057  0.6552651838861456  0.4927969341761717
  0.1836176354189920  0.8461354072866046  0.5774816948841678
  0.0093235394548137  0.8409953911632888  0.3959423519027487
  0.1580604173098866  0.6616940353264953  0.8258770960946139
  0.1704535181307357  0.8394134680894468  0.9462271661779419
  0.0584038942413843  0.8643217282783703  0.7095859850714823
  0.5005946177794725  0.0014438672084810  0.1646072994268652
  0.5021997446868514  0.1549518762604749  0.2694790944026569
  0.3763759120621417  0.1680822834349559  0.0557530411273696
  0.5192319344372721  0.9744853718786924  0.5348632526586905
  0.5315751662648650  0.1882950734349715  0.6235992422976242
  0.3493979798585355  0.1907211230250742  0.3779900420136951
  0.5194886946659131  0.0219841958792226  0.8166481173004991
  0.5245931782890043  0.1887726299800827  0.9399473629443591
  0.3462502374421037  0.1762313914766926  0.7195440851488634
  0.5351456318933242  0.3278817690328028  0.1824600922720799
  0.5326874138661987  0.5044575330916290  0.2748177689264240
  0.3053194316337500  0.4727111995594021  0.0566622456254995
  0.5345770864368020  0.3532477350312069  0.4934722842476211
  0.5186044314335861  0.4936037069063574  0.6054310028425728
  0.3310605015405468  0.4730010121856473  0.3697356738969282
  0.4800351538910793  0.3424211314403481  0.8160649349692745
  0.4644721037690549  0.4882692223848386  0.9462080255535098
  0.3448469616607013  0.5037957576245975  0.7204699228932702
  0.4938763059319024  0.6635823101547587  0.1749291640740857
  0.5030502753917973  0.8321272249765944  0.2768894959004699
  0.3188444195953192  0.8094983567587647  0.0678996735920170
  0.4348644594394737  0.6349154013208254  0.5065725473123970
  0.5227498689538547  0.8216757180879704  0.6368920454127747
  0.3246072434902291  0.8396430467099439  0.4058095972882668
  0.4865765158246156  0.6665869125301361  0.8581591224407825
  0.4619871846385573  0.8196610171533648  0.9346218993249363
  0.3358562340416477  0.8455500516478165  0.7281438595640363
  0.8346984323301202  0.9695653759757259  0.1522876123996993
  0.8149735809319765  0.1348496382353913  0.2738202623175665
  0.6527994866650039  0.2004415002384287  0.0595164978215467
  0.8016631771554590  0.9886279169459257  0.5048561461268682
  0.8482475962311420  0.1753625349730799  0.5979589639200708
  0.6437002955985864  0.1172536763599579  0.3842419346149103
  0.8330606318737933  0.0223367113899135  0.8324010330990842
  0.8588217030462761  0.1793076766609124  0.9575873595534294
  0.6932539013365823  0.1968823104743713  0.7130336529278510
  0.8225513608229402  0.3246829365898803  0.1831484952644686
  0.8426295372819246  0.5042460433357386  0.2698904851856032
  0.6515649617969620  0.4945152810663110  0.0403248608274059
  0.8105918845920923  0.3067563349767138  0.4785717223965030
  0.8579952419589623  0.4979947869058486  0.6039012745764155
  0.7062693274975199  0.5416653991106460  0.4001143357375918
  0.8051789019594953  0.3183566209057388  0.8718946683495207
  0.8307820865812605  0.5000377646470003  0.9464075864876409
  0.6792979229602996  0.5128382109256303  0.7095466849874278
  0.8013917719519859  0.6626202358938633  0.1524160497666585
  0.8206474485971036  0.8070717846174731  0.2822522906013351
  0.6380577582426279  0.8085658630931722  0.0468441202952217
  0.8836316955372026  0.6954045338600470  0.5194757113779441
  0.8379392959236109  0.8329861901468304  0.6456784925657119
  0.6463360760445073  0.8414534917956178  0.3920412727168447
  0.8650343551510629  0.6878932348096755  0.8015186223872980
  0.8272391112327510  0.8401976546418712  0.9312110786192986
  0.6691553154112567  0.8391484564411187  0.7488387127221328
 
 -0.26023144E-01  0.11310672E-01  0.47049617E-02
 -0.10208440E-01  0.41130668E-04 -0.34612284E-02
  0.39458663E-01 -0.12088865E-01  0.90058763E-02
 -0.12435783E-01  0.25552112E-01 -0.10002055E-01
 -0.61906895E-02 -0.71320713E-02 -0.18209490E-02
 -0.12428113E-02  0.18210236E-01 -0.15460995E-02
 -0.54656714E-02  0.55760610E-02  0.58338417E-02
 -0.16209748E-01  0.15397822E-01  0.28686413E-02
 -0.54996246E-02 -0.96447466E-03  0.14502111E-01
  0.39070079E-02 -0.10273579E-01  0.15584262E-01
  0.13518905E-02 -0.33300448E-01 -0.15297312E-01
  0.26296343E-01  0.13911104E-01 -0.12109691E-02
  0.23493886E-01 -0.57333409E-02 -0.80776148E-02
 -0.19905818E-01  0.47033067E-01 -0.14951211E-01
 -0.27421230E-03  0.10987172E-01 -0.26919663E-01
  0.14691258E-01 -0.11827456E-01 -0.19271833E-01
  0.81866416E-03  0.89136253E-02 -0.38381812E-02
  0.20752534E-01 -0.92190239E-02 -0.69686587E-02
 -0.29364683E-01 -0.32046155E-03  0.32453944E-01
 -0.15958512E-01 -0.90081160E-03 -0.13211112E-01
  0.20679665E-02  0.20592882E-01  0.33022113E-01
 -0.56768988E-02 -0.16266876E-01  0.11076937E-01
 -0.13210222E-01  0.10120078E-01  0.53681920E-02
 -0.78868692E-02  0.51403270E-02  0.16136654E-02
 -0.96773910E-02 -0.14369298E-01 -0.21715197E-01
 -0.51743957E-02  0.48137658E-02  0.46629378E-02
  0.23789571E-02 -0.17487516E-01 -0.40896229E-02
  0.19268650E-01  0.90193883E-02 -0.12697651E-01
 -0.11763958E-01 -0.20751697E-01  0.11629735E-03
  0.22144326E-01 -0.11079536E-01  0.25377584E-01
 -0.18976511E-01  0.83031793E-02  0.12454894E-02
 -0.43949432E-02 -0.29897065E-02  0.15869743E-01
  0.47767448E-02  0.18937742E-01 -0.15164012E-01
 -0.11673510E-01 -0.17315736E-01 -0.24109104E-02
  0.17601952E-01  0.31433344E-02 -0.32372009E-01
  0.89288847E-02 -0.20080221E-03  0.28119256E-04
 -0.23705388E-02 -0.17531103E-01  0.88168287E-03
 -0.98852106E-02 -0.94173188E-04 -0.20999727E-01
 -0.68121107E-02 -0.16678930E-01 -0.28257154E-01
  0.22130244E-01  0.13880578E-01  0.91689980E-03
  0.26904167E-02 -0.42486513E-02  0.32389283E-02
  0.12582726E-01 -0.95405690E-02 -0.30295039E-03
 -0.12997987E-02 -0.28648732E-02 -0.72796745E-02
  0.10238842E-02 -0.40283637E-02 -0.26032130E-01
  0.94175148E-03  0.31605337E-02 -0.11435971E-01
  0.50670290E-02 -0.18208472E-01  0.21875219E-01
 -0.99033301E-02 -0.14058030E-01 -0.45856360E-02
 -0.10751539E-01  0.60968607E-03  0.33723991E-02
  0.14552002E-01  0.75406160E-02  0.23715603E-01
  0.23772862E-01 -0.50144723E-02 -0.33155416E-02
 -0.99006513E-02 -0.49795522E-02  0.36328740E-02
  0.81113340E-02  0.11315619E-03 -0.13007357E-02
  0.29597081E-02  0.24067261E-01 -0.12780343E-03
 -0.86716104E-02  0.19848300E-01  0.29707111E-02
 -0.28274974E-01 -0.26171152E-02 -0.16403377E-02
  0.15020836E-03  0.18704808E-01 -0.51717444E-03
  0.15595294E-01  0.13638529E-01 -0.74015766E-02
 -0.57192530E-02 -0.53972596E-02  0.99930224E-02
  0.16393802E-01  0.94246039E-02  0.92541994E-03
 -0.95883849E-02 -0.52339444E-02 -0.66966614E-02
 -0.10445391E-01 -0.54367295E-02 -0.10028742E-01
  0.99615595E-03 -0.40080211E-02  0.15914300E-01
 -0.27711057E-01 -0.14920740E-01  0.14872394E-01
  0.26485447E-02 -0.21384748E-01 -0.17509338E-01
  0.31108479E-02 -0.82292408E-02 -0.16084562E-01
 -0.76699930E-02 -0.14059823E-02 -0.50383464E-03
 -0.48437106E-02  0.10465106E-01 -0.22619123E-01
  0.12592055E-01 -0.10608378E-01  0.48418982E-01
 -0.17740105E-01 -0.20850624E-01 -0.27649451E-02
  0.78243625E-02 -0.13141388E-01  0.13193700E-02
 -0.32562354E-01  0.47699132E-02  0.15278915E-01
 -0.28202020E-01  0.18983226E-01  0.14978272E-02
  0.13804057E-02 -0.16018483E-01  0.37471336E-02
  0.18357451E-01  0.16240481E-03  0.10250126E-01
  0.70447572E-02  0.18097372E-01 -0.25671317E-01
  0.61987647E-02 -0.36547376E-02  0.29042947E-01
 -0.28528780E-02  0.31326494E-01 -0.18389513E-01
  0.86534565E-04 -0.56417266E-02  0.77205311E-02
  0.12804179E-01  0.12285434E-02  0.80993224E-02
  0.16016790E-01 -0.44254076E-02  0.83683616E-02
  0.12314747E-01 -0.22963029E-01 -0.20392397E-01
  0.12563515E-01 -0.15010892E-01  0.57233847E-02
 -0.40643329E-02 -0.43237472E-02 -0.12300448E-02
  0.85621053E-02  0.12757407E-01 -0.47734448E-02
 -0.17412569E-01 -0.32048856E-02  0.10542980E-01
  0.47232354E-02 -0.82123859E-02  0.17346367E-01
 -0.12017858E-01 -0.22887163E-01 -0.98736281E-02
  0.19343490E-02 -0.93459597E-02 -0.17528641E-01
 -0.58849577E-02 -0.11314906E-01 -0.23792637E-01
 -0.58009414E-02  0.17472308E-01  0.32242638E-01
  0.95053462E-02  0.41250341E-02 -0.20138317E-01
  0.12624453E-01  0.14900959E-01  0.25588227E-02
 -0.77049604E-02 -0.14420875E-02  0.50518301E-02
 -0.23425425E-01 -0.30123277E-02  0.10312647E-01
 -0.26136924E-01 -0.37399161E-02 -0.72236582E-02
  0.18641197E-01  0.18803610E-01 -0.34149905E-02
  0.11101052E-02 -0.13607375E-01  0.57997520E-02
  0.14013387E-02  0.16640679E-01  0.10461350E-01
 -0.21126693E-02  0.10215456E-01  0.37428698E-02
 -0.24938311E-01  0.32621079E-01 -0.21027150E-01
 -0.26152750E-01 -0.48269636E-02 -0.77470940E-02
  0.10424972E-01  0.12235469E-01  0.17243175E-01
  0.24274290E-02  0.73378025E-02 -0.20548834E-03
  0.12334591E-01 -0.42070011E-02  0.16516719E-01
 -0.19128667E-01 -0.13871219E-01  0.94449472E-04
 -0.58625033E-02  0.14953757E-01  0.14585485E-01
  0.54056439E-02  0.31903756E-02  0.29749978E-01
  0.10563694E-01  0.60498697E-02  0.29414803E-02
  0.10502693E-01 -0.68988003E-02  0.75066223E-02
 -0.15403469E-01 -0.27479514E-02  0.11828121E-01
  0.17081895E-01  0.33355117E-02  0.10005327E-01
  0.16830714E-01 -0.18957813E-01  0.82310703E-02
  0.18935933E-02  0.23568548E-01 -0.15628272E-01
 -0.14252262E-01  0.32964614E-03  0.28364091E-01
 -0.27018568E-02 -0.16518328E-01 -0.83316363E-02
  0.20715266E-02 -0.17551566E-01  0.23336458E-02
  0.13670343E-01 -0.31911191E-02  0.19919556E-01
  0.63854390E-02  0.14930026E-01 -0.66237972E-02
  0.94734045E-02  0.20809781E-01  0.92032613E-02
  0.50447592E-02 -0.92859490E-02 -0.79806989E-03
  0.22302072E-02 -0.47190562E-02 -0.64478644E-02
  0.12490205E-02 -0.25539893E-01 -0.72735970E-02
  0.10156183E-01  0.77580039E-02 -0.30122257E-02
 -0.29084591E-01  0.44419084E-02  0.22883602E-01
 -0.80928106E-02  0.11794428E-01  0.21811081E-01
 -0.26193345E-01  0.47587184E-02  0.87678652E-02
  0.73174601E-02 -0.59250453E-02 -0.25453480E-01
 -0.14478865E-01  0.14488621E-01 -0.46282518E-02
  0.10547884E-01  0.29379297E-02  0.82629962E-02
  0.14178760E-01 -0.24477163E-02 -0.98761305E-02
  0.34165896E-04  0.29659443E-01 -0.65692970E-02
  0.65234132E-02 -0.26129540E-02  0.30638223E-02
  0.18005440E-01 -0.54713568E-02 -0.11815733E-01
  0.16665293E-02 -0.59226028E-02 -0.21529044E-01
 -0.19875720E-01 -0.98772086E-02  0.84395315E-02
 -0.27884149E-02 -0.78128344E-02 -0.52017928E-02
  0.23052199E-01  0.29505520E-02 -0.14483988E-01
 -0.13295071E-01 -0.26377574E-01 -0.51626743E-02
  0.12514495E-01  0.14507856E-01  0.10059149E-01
  0.90033740E-02 -0.10063862E-01 -0.17131937E-01
  0.14588859E-01 -0.68047790E-02 -0.73248283E-02
  0.13228672E-02 -0.14382524E-01 -0.19028428E-01
  0.50772984E-02 -0.66595576E-02  0.85692063E-02
  0.51795367E-02  0.21195694E-01  0.46318981E-02
 -0.59760779E-02  0.15406422E-01 -0.46436212E-02
  0.46123802E-02  0.21474255E-01 -0.62060531E-02
 -0.75493550E-02 -0.10410322E-01 -0.18095439E-01
  0.18228223E-01 -0.22374735E-02  0.11688694E-01
 -0.38552936E-02  0.13733392E-01 -0.26236508E-01
  0.12589184E-01 -0.12223547E-01 -0.10572037E-01
 -0.10859774E-01  0.59772538E-02 -0.11895629E-01
  0.44274596E-03 -0.98701221E-02 -0.86650746E-02
  0.83908342E-02 -0.17537886E-01 -0.21598863E-01
 -0.11005650E-01  0.19151352E-01  0.39196741E-02
  0.13854629E-01 -0.95092869E-02 -0.18245174E-01
 -0.18038780E-02  0.29971934E-01  0.87965657E-02
  0.33013991E-01 -0.12964990E-01 -0.13130828E-01
  0.16255646E-01  0.13253797E-01 -0.84430891E-02
 -0.68684477E-03 -0.57914808E-02 -0.35158181E-01
  0.15239925E-01  0.21608158E-01 -0.15281595E-01
 -0.17613381E-02 -0.12645416E-02 -0.21794682E-01
  0.10276948E-01  0.59349774E-02  0.17122740E-01
  0.14129310E-01  0.58723513E-02  0.17474885E-01
  0.20799057E-01  0.49781134E-02 -0.26497648E-01
  0.47525731E-02  0.29662421E-02 -0.22552043E-02
 -0.15907645E-02  0.41564577E-02 -0.41800219E-02
 -0.20640749E-01 -0.12873783E-01  0.17503648E-01
 -0.20155472E-01 -0.21450005E-02  0.18300245E-01
  0.58519052E-02 -0.10375028E-01  0.20151064E-01
 -0.15577060E-01  0.12541528E-01  0.73223394E-02
  0.24225992E-01 -0.51726626E-02 -0.60494983E-02
  0.21047289E-02 -0.45640203E-02  0.63326005E-02
  0.15723594E-01 -0.63096502E-02 -0.19587698E-01
 -0.95284708E-02  0.62922423E-02  0.99634104E-02
 -0.40788005E-02 -0.27901858E-01 -0.97693057E-02
  0.20577104E-02  0.15341198E-01 -0.83673684E-02
  0.73293095E-02 -0.11301501E-01  0.68863003E-02
 -0.30582744E-02 -0.76541819E-02 -0.18197413E-02
 -0.21228713E-01 -0.10841469E-01  0.13684371E-01
 -0.16284644E-02 -0.11621819E-01  0.90204876E-02
 -0.76803906E-02  0.73469503E-02  0.17581377E-01
 -0.26631891E-01 -0.10305019E-01  0.82140162E-02
 -0.15713307E-01 -0.19418657E-01  0.68793405E-03
 -0.67220766E-03 -0.46979757E-02  0.16590290E-01
  0.21960192E-01  0.24002043E-01 -0.99979815E-03
 -0.30542575E-03  0.85347695E-02 -0.71455960E-02
  0.17001451E-01 -0.19801685E-01 -0.10073248E-01
 -0.23522769E-02  0.36288804E-02  0.10109895E-01
  0.16017917E-01  0.21739330E-01 -0.15390372E-01
  0.25456995E-02  0.17050991E-01  0.14122983E-01
 -0.18719733E-02 -0.29422719E-02  0.14481290E-02
  0.98391421E-02  0.20900194E-02 -0.18712549E-01
 -0.12122595E-02 -0.18918744E-02 -0.30534473E-03
  0.10384213E-03 -0.30252554E-02  0.57879625E-02
 -0.19176530E-01  0.13770697E-01 -0.56537283E-02
  0.30408968E-01 -0.19723573E-01  0.53551462E-02
  0.16110710E-01 -0.15814963E-01  0.19764782E-01
  0.96491221E-02 -0.81421479E-02  0.69234019E-02
 -0.25849357E-02 -0.62624975E-03  0.84279385E-02
 -0.30565893E-02 -0.12976621E-01 -0.12697870E-01
 -0.37078254E-02 -0.14921962E-02  0.19957789E-01
 -0.81120785E-02 -0.19703369E-02 -0.14131493E-02
  0.68024236E-02  0.44704270E-02  0.23538945E-01
  0.76814039E-02 -0.46765000E-02 -0.98454736E-02
 -0.15541881E-01 -0.29483581E-02  0.91427014E-02
 -0.17636144E-01 -0.12011710E-01 -0.12515050E-01
 -0.87543676E-04  0.20437971E-01  0.41288284E-02
  0.88711857E-05  0.55572206E-02  0.75421822E-02
 -0.48270734E-03  0.41642578E-03  0.18111790E-01
  0.38153556E-02  0.56141058E-03 -0.38017290E-02
  0.22803881E-01 -0.10103620E-01  0.77084995E-02
 -0.71139451E-02  0.17613543E-02 -0.19999312E-02
 -0.41336799E-03 -0.20737038E-01 -0.49439465E-02
 -0.37446560E-02  0.86310137E-03  0.11921333E-01
  0.10404231E-01 -0.15483006E-01 -0.94387692E-02
  0.49832662E-02  0.77286738E-03 -0.84466518E-02
  0.74152685E-02 -0.92768535E-03 -0.33172154E-02
 -0.10552616E-02  0.70606654E-02 -0.12495616E-01
  0.15376256E-01  0.98813357E-02  0.72346247E-02
 -0.25086735E-02  0.10636425E-01 -0.15504990E-01
 -0.26401022E-01 -0.40864605E-02  0.43659092E-02
 -0.60978074E-02 -0.90098138E-02 -0.64923862E-02
 -0.17963688E-03  0.69876462E-02 -0.85352955E-02
  0.29198455E-02 -0.10098100E-01  0.14074246E-01
 -0.11956487E-01  0.62503072E-02 -0.25355034E-02
 -0.77271339E-02  0.10824712E-01  0.13657156E-01
 -0.98702728E-02  0.12362899E-03  0.96790572E-03
  0.18082733E-01  0.83838429E-02  0.21898188E-02
 -0.11704942E-02 -0.14268805E-02 -0.55703802E-02
 -0.13829647E-01  0.12812998E-01 -0.12091270E-01
  0.83368924E-02  0.24263386E-02 -0.28495604E-01
  0.18061591E-01  0.55281562E-02  0.10459120E-02
 -0.64645328E-02 -0.50183177E-03  0.52762418E-02
 -0.24338853E-02 -0.95643928E-02 -0.14773472E-02
 -0.10790694E-01 -0.66244811E-02  0.11596904E-01
 -0.46124992E-03  0.89814652E-02 -0.10032193E-01
 -0.12058451E-01  0.21301573E-01 -0.18542970E-01
 -0.15827421E-01 -0.66396497E-02 -0.31084421E-02
 -0.11537098E-01 -0.16228375E-01  0.22227982E-02
 -0.71281190E-02  0.62511391E-02  0.52002436E-02
 -0.41704342E-02  0.17901403E-01  0.16253382E-01
 -0.83470758E-02 -0.18284301E-02 -0.11542743E-01
  0.12242373E-01  0.10480858E-01  0.63894349E-02
 
           1
  0.500000000000000     
  0.58963874E+00  0.26691390E-02 -0.67485570E-17  0.00000000E+00
  0.38588022E-01  0.17776753E+00  0.98005833E+00
  0.25632326E+00  0.96685390E-01  0.88966213E-01
  0.19192987E+00  0.26388544E+00  0.22888654E+00
  0.36240576E+00  0.23487873E+00  0.96981890E+00
  0.99995512E+00  0.22726554E+00  0.18271300E+00
  0.11031359E+00  0.76633298E-01  0.17175889E+00
  0.40213423E-01  0.11113385E+00  0.33556183E+00
  0.33238761E+00  0.85858758E-01  0.43544041E+00
  0.17021036E+00  0.26717185E+00  0.54884542E+00
  0.21486554E+00  0.12953080E+00  0.33794328E+00
  0.66541760E-01  0.28978547E+00  0.40525429E+00
  0.16809986E+00  0.84665858E-01  0.53082602E+00
  0.61363891E-01  0.11659910E+00  0.65033114E+00
  0.30727351E+00  0.11221821E+00  0.80607702E+00
  0.18159186E+00  0.22321403E+00  0.84417384E+00
  0.26882212E+00  0.20271421E+00  0.65562438E+00
  0.88915773E-01  0.28530352E+00  0.75589020E+00
  0.12718086E+00  0.58102540E-01  0.91017314E+00
  0.62081636E-01  0.50829173E+00  0.11656415E-01
  0.22149232E+00  0.34352363E+00  0.99117544E-01
  0.19197381E+00  0.61533886E+00  0.25036300E+00
  0.22969093E+00  0.48213384E+00  0.98551886E+00
  0.65850681E-01  0.63088049E+00  0.14444010E+00
  0.14510899E+00  0.41693323E+00  0.18748829E+00
  0.61164711E-01  0.44144362E+00  0.33119186E+00
  0.28259901E+00  0.37627941E+00  0.43347088E+00
  0.18091093E+00  0.59950040E+00  0.59719658E+00
  0.26765624E+00  0.51469972E+00  0.30415791E+00
  0.64647152E-01  0.54919567E+00  0.44501905E+00
  0.78379445E-01  0.37978322E+00  0.55441440E+00
  0.66090851E-01  0.44757509E+00  0.72065298E+00
  0.30315029E+00  0.43552841E+00  0.80112708E+00
  0.20623345E+00  0.59989629E+00  0.86748547E+00
  0.24264838E+00  0.50449716E+00  0.66571305E+00
  0.51065982E-01  0.60404107E+00  0.79463107E+00
  0.92046191E-01  0.37122812E+00  0.87701628E+00
  0.42947893E-01  0.78114657E+00  0.97534466E+00
  0.26480572E+00  0.73284019E+00  0.13726851E+00
  0.13623130E+00  0.96157175E+00  0.26382707E+00
  0.24508514E+00  0.84770116E+00  0.18094232E-01
  0.65140887E-01  0.89829283E+00  0.11235018E+00
  0.16975076E+00  0.77859391E+00  0.23985189E+00
  0.55922734E-01  0.77134077E+00  0.34416880E+00
  0.25641951E+00  0.70904423E+00  0.45310463E+00
  0.25210888E+00  0.96008137E+00  0.55770015E+00
  0.26299688E+00  0.87427126E+00  0.36390935E+00
  0.12987643E+00  0.93568514E+00  0.41317999E+00
  0.13758407E+00  0.73370314E+00  0.54807869E+00
  0.80995921E-01  0.82372457E+00  0.61773421E+00
  0.26275372E+00  0.71931548E+00  0.76810690E+00
  0.17502851E+00  0.94949425E+00  0.91234078E+00
  0.24885064E+00  0.86415064E+00  0.66329275E+00
  0.13128785E+00  0.96460496E+00  0.76495598E+00
  0.15559275E+00  0.72643214E+00  0.90738167E+00
  0.39587713E+00  0.74225070E-01  0.99589053E+00
  0.60851943E+00  0.10464567E+00  0.12793971E+00
  0.59159006E+00  0.26284970E+00  0.22545288E+00
  0.62367945E+00  0.27759833E+00  0.19337831E-01