(Si O2)81  (P1) ~ 3x3x3Supersel (VASP)  
   1.00000000000000     
    14.9916000000000000    0.0000000000000000    0.0000000000000000
    -7.4957993700000003   12.9831068100000007    0.0000000000000000
     0.0000006000000000    0.0000010400000000   16.3712997000000016
   O    Si
   162    81
Direct
  0.0392381507313434  0.1773319421811100  0.9799146343989483
  0.2566629440326148  0.0966838056174330  0.0890719234654877
  0.1908466259408699  0.2643510054746244  0.2286114894312274
  0.3623284875319542  0.2338946731828069  0.9701243715972658
  0.0002989300458512  0.2275402040240289  0.1827686186534849
  0.1100043873085100  0.0759319931788350  0.1718061139058893
  0.0402883428119565  0.1109191079380401  0.3353836613370003
  0.3326317421964978  0.0852657632023389  0.4353528005898218
  0.1704123506540312  0.2672089926889846  0.5484025105416451
  0.2149330627884656  0.1299264561341609  0.3374673134606805
  0.0671378979313975  0.2910679243697251  0.4057214858344000
  0.1669549507097663  0.0841301198212283  0.5308630069681788
  0.0606907231435696  0.1168198951543253  0.6505778445337156
  0.3070317535985138  0.1104068934108803  0.8065336502607976
  0.1813894344111815  0.2227908946811729  0.8449959973116966
  0.2685598813406352  0.2031697043065332  0.6562129681074313
  0.0887168299609907  0.2849602441643287  0.7560074188139383
  0.1266662379245426  0.0584575790893750  0.9103859748816800
  0.0630671783065305  0.5083040758518761  0.0106652310537721
  0.2220419141777973  0.3435583262943012  0.0995210275387308
  0.1915083026430636  0.6145457914300623  0.2493544602651185
  0.2301934943965296  0.4827603081709409  0.9851805526122629
  0.0660963983647345  0.6304907452178650  0.1442761485187638
  0.1452730485407347  0.4167352727249911  0.1874390063633589
  0.0617641639816335  0.4419970065264741  0.3318550685751367
  0.2826788954732283  0.3760940249904117  0.4333284715603223
  0.1811683260989118  0.6001738769235359  0.5973214820377439
  0.2668399176900345  0.5143523684857684  0.3045457158019441
  0.0654390940786365  0.5499948527824872  0.4450155005316945
  0.0778542329279479  0.3802099058031215  0.5536393406180935
  0.0665638718019730  0.4472553180670802  0.7206149437189846
  0.3033544438230320  0.4356435518950862  0.8006424021165002
  0.2057094749369994  0.5991669682876501  0.8679485994848871
  0.2433711399480047  0.5051640203356901  0.6657866847499652
  0.0504183939131799  0.6039200115169400  0.7956197474184912
  0.0917522615387521  0.3712358515171851  0.8770154164540088
  0.0433645301634865  0.7818217162692317  0.9753177320015438
  0.2651372230852581  0.7328438129925611  0.1379098669131295
  0.1367796650537633  0.9622140832027037  0.2646900792431962
  0.2440797742561835  0.8471665999306269  0.0180662291822572
  0.0651329669337380  0.8984564535486615  0.1122512559143888
  0.1695148146808553  0.7789613339575319  0.2398611458683853
  0.0560212502045393  0.7714511052327817  0.3443911337771222
  0.2564629291506854  0.7091993656163039  0.4538996818029816
  0.2520166120400142  0.9599596513166395  0.5580494184270516
  0.2631785010810013  0.8749725015928391  0.3632412511964635
  0.1304774239774028  0.9362265368278498  0.4133200375020716
  0.1379309165428094  0.7336796555048106  0.5479756884374657
  0.0803653818710387  0.8234341732178727  0.6170099094697946
  0.2620574064983800  0.7195085961200761  0.7682081616257289
  0.1754545987390095  0.9496860194179176  0.9122298277107913
  0.2485779323722423  0.8641462870799819  0.6633324745870801
  0.1307257077975028  0.9636780962480447  0.7649598818529550
  0.1554997721684416  0.7256677528834580  0.9072909391882719
  0.3968705561877079  0.0743258591995372  0.9959406320421120
  0.6081542458480705  0.1039253188123579  0.1279555097803168
  0.5908073023097722  0.2623244536798544  0.2256789356651895
  0.6239741301997496  0.2778061849598091  0.0190326318413363
  0.4518742411827107  0.2465798219284750  0.1195795263972170
  0.4348892174978753  0.0512679625751955  0.2003035080874414
  0.4468586202471430  0.2162739095808124  0.3026552956130413
  0.5808702470019632  0.0023266452710536  0.4479767331776303
  0.5625668574973721  0.2605608270022747  0.5403004960048378
  0.5368700405068253  0.1052030403484686  0.3415057449095870
  0.4117395933281926  0.3025971374640998  0.4285901905114468
  0.5033706781524315  0.0682708780085942  0.5881254607169405
  0.4027405232765660  0.1678169580477467  0.6430413348773644
  0.6022378873440083  0.0720832598661048  0.7434543440388338
  0.5338423868345233  0.2864114420823984  0.8683767836315356
  0.6309517095483306  0.2606944617357109  0.6813529875559002
  0.3941796987701491  0.3101801130896870  0.7571037593897563
  0.5410125363718150  0.0836618630972355  0.9001648646058487
  0.3503049420052946  0.4252117814646030  0.0037513785004929
  0.5915097146884598  0.4192644710711883  0.1101863621390928
  0.5420151500597038  0.6084141528092403  0.2401350346821362
  0.5744181675344271  0.5239719454524189  0.9993982707159053
  0.4061130853301415  0.5558068661641377  0.1177529423380070
  0.5197262035204882  0.4214179759896415  0.2156562824737826
  0.4328011836681227  0.4764294784243448  0.3239134012967042
  0.6394949291980482  0.4396495233504618  0.4515697193388984
  0.5151765410393475  0.5594081523246390  0.5229654678940838
  0.6185529734083759  0.5148870708672936  0.3300459636402493
  0.3552261727879180  0.5688420107350984  0.4343085444731016
  0.5215616318580728  0.3755594482746957  0.5849711243048509
  0.4079542400727635  0.4723145861772634  0.6593005922680759
  0.5913295316364896  0.4335839249587301  0.7772846203044479
  0.4423049453143383  0.5776089618343689  0.9212113493827968
  0.6204860857532463  0.5743073243429597  0.6577835884019181
  0.4412107495886477  0.5951559660719100  0.7819210946469213
  0.4808813423425533  0.4324619190671493  0.8746089483285540
  0.3572982668271083  0.7623771620448236  0.9945751072306291
  0.5740234679094471  0.7185460151375715  0.1061822960803913
  0.5189892695198038  0.9264998891266139  0.2325703683138842
  0.5481841944181299  0.8271683954327547  0.9948338269385355
  0.4379647751822146  0.9298000982578637  0.0769355394835183
  0.4421361848867842  0.7409186450575379  0.2149489794170386
  0.4235879062530747  0.8309692010665632  0.3571708259496900
  0.5559137873647871  0.7606296130155966  0.4507783786880242
  0.5781224664531868  0.9289388144519229  0.5929575023237619
  0.6101495494307249  0.8303430182119582  0.3023248805998528
  0.3965652005976805  0.9094513630510137  0.4900793753765707
  0.4718112161705478  0.7025129228501257  0.5880325279808853
  0.4110637378044316  0.8325572844212181  0.6536136664177747
  0.6050870894365843  0.7365911468811578  0.8259488595243526
  0.5304792078313476  0.9383962645202469  0.8824288108559064
  0.5562846365268133  0.7810455963878118  0.7218699621833481
  0.3920674541342179  0.9678979874343593  0.7887559528835516
  0.4195286652750494  0.7323555606834454  0.8633883935098932
  0.7077581276863121  0.1488814005805582  0.9835807024710432
  0.9057677826587508  0.0542309668034494  0.0969606833604921
  0.7968404736817688  0.1990994918602774  0.2011563410668220
  0.9193709069507098  0.2316575712480952  0.0423276103312499
  0.7584889573177266  0.2957636531612136  0.0973230200328764
  0.8133512779492881  0.0356152284389974  0.2377326085205470
  0.6864069477618306  0.0643909962500756  0.3089507546020384
  0.9163904498866862  0.0773332845699608  0.4685270647396036
  0.8996956200158235  0.2713746069153100  0.5153308198732189
  0.9019827922759944  0.1839821425275167  0.3463025462088752
  0.7051394657416628  0.1931545132937719  0.4610262304358371
  0.7793013545630577  0.0604512280179181  0.5699356962905555
  0.7501927472881761  0.1838184277637325  0.6348903369076383
  0.9122464828272908  0.0878186305402815  0.7583933105612027
  0.9082587971833078  0.3000749596853577  0.8782236034328453
  0.9525560418940431  0.2020326826921132  0.6452620148478529
  0.7663532544148972  0.2464971306398096  0.7940555270984858
  0.8457696856040026  0.0838703000348705  0.9052076425463801
  0.7340972009376420  0.5215846608308643  0.9764234747942316
  0.9363657220400972  0.3904681101393337  0.1331568763547614
  0.8485603768347939  0.5968542812423082  0.2008677915145636
  0.8807702332904883  0.4878391313900872  0.0446718929123238
  0.6996407851997571  0.5971780366882324  0.1161969294528909
  0.8276335394859855  0.3925356459287047  0.2551281946867131
  0.7705123847912996  0.4915838546824479  0.3531406771955177
  0.8575111433453810  0.3795033935768581  0.3851268752012157
  0.9218177698088348  0.6246974278946875  0.5580589928963867
  0.9580641361965730  0.5590162588192349  0.3200088195338614
  0.7676075321350687  0.6660623410207247  0.4341729584346424
  0.8086699025001843  0.4074839292935577  0.5438269118659814
  0.7339760555552233  0.4895487140229842  0.6380221041729692
  0.9015326587962602  0.4446326729378394  0.8092658155375939
  0.8803313170591888  0.5954921085724858  0.8680892437905461
  0.9448341236310211  0.4952411272952953  0.6492589201805707
  0.7549478242758925  0.5704041194902696  0.7865764301532375
  0.7593291506519406  0.3760050515973338  0.9177547123624238
  0.7218226720682774  0.8087800288105150  0.9734229468968930
  0.8560291641638502  0.7376110440983097  0.0690671529748316
  0.8864198758528608  0.8890376465382896  0.1942266961957566
  0.9452712064828863  0.8756482546441047  0.9781465422839157
  0.7304918438119674  0.9099496528518999  0.0967727248968636
  0.7728873041144896  0.6890161305130048  0.2465625652781885
  0.7681975327235763  0.8601465865224562  0.3169873515835456
  0.9789505217688481  0.8141591166813900  0.4897962912317079
  0.7800417553931757  0.8884662435768920  0.5814853239351103
  0.9415827916937978  0.8495903506790757  0.3307192369584915
  0.7179585711706428  0.9255836832466056  0.4413403579253563
  0.8429436746513849  0.7436688645930397  0.5934397750839312
  0.7338242165139983  0.8009471952889921  0.7065707223700491
  0.0179082614462680  0.7562973703380809  0.7683351881783511
  0.8867417591124935  0.9415584504690059  0.8651536470462682
  0.9431401108392085  0.8790564997202946  0.6966794079008753
  0.7283871418305233  0.9681725438802122  0.7905975748144290
  0.8327230667394063  0.7635482403314209  0.8465416780497422
  0.1626636477739433  0.0054196384228266  0.1621130204379271
  0.1291033333648330  0.1302021881709106  0.2657942411967187
  0.9947686108267336  0.1846867089923599  0.0728163335417027
  0.2136390304359225  0.0199185191320664  0.4818745051064571
  0.1626000525491723  0.1721593785798604  0.5916860098143328
  0.9709960051984357  0.1470667975962931  0.3923357228364122
  0.1953116896234473  0.0299310983163047  0.8379724062630042
  0.1323509546992911  0.1576880172720736  0.9217619348380122
  0.0170468977008462  0.1881366553592785  0.7190628541573284
  0.1291834591710567  0.3036475995595841  0.1757176474751408
  0.1596400989143846  0.4871054760647318  0.2615953000483977
  0.9907336940078242  0.5043183512988156  0.0884727531899263
  0.1412996722728547  0.3291889404130113  0.4834801937402594
  0.1488333372806423  0.4888362715954379  0.6271499343363895
  0.9800821507461430  0.4884386738549020  0.3711902409740106
  0.1831596170721234  0.3371889809017052  0.8346668562801172
  0.1501650016830470  0.4885254563360341  0.9267039704889329
  0.0027664753328538  0.4973932221324938  0.7465638663920378
  0.1662055592241113  0.6834592829474678  0.2006764742215972
  0.1691396927450051  0.8724925327024132  0.3116232467745619
  0.9877492925960788  0.8253721584986113  0.0395798793618455
  0.1539316725148057  0.6552651838861456  0.4927969341761717
  0.1836176354189920  0.8461354072866046  0.5774816948841678
  0.0093235394548137  0.8409953911632888  0.3959423519027487
  0.1580604173098866  0.6616940353264953  0.8258770960946139
  0.1704535181307357  0.8394134680894468  0.9462271661779419
  0.0584038942413843  0.8643217282783703  0.7095859850714823
  0.5005946177794725  0.0014438672084810  0.1646072994268652
  0.5021997446868514  0.1549518762604749  0.2694790944026569
  0.3763759120621417  0.1680822834349559  0.0557530411273696
  0.5192319344372721  0.9744853718786924  0.5348632526586905
  0.5315751662648650  0.1882950734349715  0.6235992422976242
  0.3493979798585355  0.1907211230250742  0.3779900420136951
  0.5194886946659131  0.0219841958792226  0.8166481173004991
  0.5245931782890043  0.1887726299800827  0.9399473629443591
  0.3462502374421037  0.1762313914766926  0.7195440851488634
  0.5351456318933242  0.3278817690328028  0.1824600922720799
  0.5326874138661987  0.5044575330916290  0.2748177689264240
  0.3053194316337500  0.4727111995594021  0.0566622456254995
  0.5345770864368020  0.3532477350312069  0.4934722842476211
  0.5186044314335861  0.4936037069063574  0.6054310028425728
  0.3310605015405468  0.4730010121856473  0.3697356738969282
  0.4800351538910793  0.3424211314403481  0.8160649349692745
  0.4644721037690549  0.4882692223848386  0.9462080255535098
  0.3448469616607013  0.5037957576245975  0.7204699228932702
  0.4938763059319024  0.6635823101547587  0.1749291640740857
  0.5030502753917973  0.8321272249765944  0.2768894959004699
  0.3188444195953192  0.8094983567587647  0.0678996735920170
  0.4348644594394737  0.6349154013208254  0.5065725473123970
  0.5227498689538547  0.8216757180879704  0.6368920454127747
  0.3246072434902291  0.8396430467099439  0.4058095972882668
  0.4865765158246156  0.6665869125301361  0.8581591224407825
  0.4619871846385573  0.8196610171533648  0.9346218993249363
  0.3358562340416477  0.8455500516478165  0.7281438595640363
  0.8346984323301202  0.9695653759757259  0.1522876123996993
  0.8149735809319765  0.1348496382353913  0.2738202623175665
  0.6527994866650039  0.2004415002384287  0.0595164978215467
  0.8016631771554590  0.9886279169459257  0.5048561461268682
  0.8482475962311420  0.1753625349730799  0.5979589639200708
  0.6437002955985864  0.1172536763599579  0.3842419346149103
  0.8330606318737933  0.0223367113899135  0.8324010330990842
  0.8588217030462761  0.1793076766609124  0.9575873595534294
  0.6932539013365823  0.1968823104743713  0.7130336529278510
  0.8225513608229402  0.3246829365898803  0.1831484952644686
  0.8426295372819246  0.5042460433357386  0.2698904851856032
  0.6515649617969620  0.4945152810663110  0.0403248608274059
  0.8105918845920923  0.3067563349767138  0.4785717223965030
  0.8579952419589623  0.4979947869058486  0.6039012745764155
  0.7062693274975199  0.5416653991106460  0.4001143357375918
  0.8051789019594953  0.3183566209057388  0.8718946683495207
  0.8307820865812605  0.5000377646470003  0.9464075864876409
  0.6792979229602996  0.5128382109256303  0.7095466849874278
  0.8013917719519859  0.6626202358938633  0.1524160497666585
  0.8206474485971036  0.8070717846174731  0.2822522906013351
  0.6380577582426279  0.8085658630931722  0.0468441202952217
  0.8836316955372026  0.6954045338600470  0.5194757113779441
  0.8379392959236109  0.8329861901468304  0.6456784925657119
  0.6463360760445073  0.8414534917956178  0.3920412727168447
  0.8650343551510629  0.6878932348096755  0.8015186223872980
  0.8272391112327510  0.8401976546418712  0.9312110786192986
  0.6691553154112567  0.8391484564411187  0.7488387127221328
