(Si O2)81  (P1) ~ Ciellie_MCM41 (MD #12)_1_3x3x3_1 (VASP)
    1.0
            14.99190030 0.00000000 0.00000000 
            -7.49594983 12.98336669 0.00000000 
            0.00000030 0.00000052 16.37160030 
  162 81
Direct
        0.06921667 0.13843334 0.00000000
        0.26411666 0.06921667 0.11111111
        0.19489999 0.26411666 0.22222222
        0.26411666 0.19489999 0.00000000
        0.06921667 0.26411666 0.11111111
        0.13843334 0.06921667 0.22222222
        0.06921667 0.13843334 0.33333333
        0.26411666 0.06921667 0.44444444
        0.19489999 0.26411666 0.55555556
        0.26411666 0.19489999 0.33333333
        0.06921667 0.26411666 0.44444444
        0.13843334 0.06921667 0.55555556
        0.06921667 0.13843334 0.66666667
        0.26411666 0.06921667 0.77777778
        0.19489999 0.26411666 0.88888889
        0.26411666 0.19489999 0.66666667
        0.06921667 0.26411666 0.77777778
        0.13843334 0.06921667 0.88888889
        0.06921667 0.47176667 0.00000000
        0.26411666 0.40255000 0.11111111
        0.19489999 0.59745000 0.22222222
        0.26411666 0.52823333 0.00000000
        0.06921667 0.59745000 0.11111111
        0.13843334 0.40255000 0.22222222
        0.06921667 0.47176667 0.33333333
        0.26411666 0.40255000 0.44444444
        0.19489999 0.59745000 0.55555556
        0.26411666 0.52823333 0.33333333
        0.06921667 0.59745000 0.44444444
        0.13843334 0.40255000 0.55555556
        0.06921667 0.47176667 0.66666667
        0.26411666 0.40255000 0.77777778
        0.19489999 0.59745000 0.88888889
        0.26411666 0.52823333 0.66666667
        0.06921667 0.59745000 0.77777778
        0.13843334 0.40255000 0.88888889
        0.06921667 0.80510001 0.00000000
        0.26411666 0.73588334 0.11111111
        0.19489999 0.93078333 0.22222222
        0.26411666 0.86156666 0.00000000
        0.06921667 0.93078333 0.11111111
        0.13843334 0.73588334 0.22222222
        0.06921667 0.80510001 0.33333333
        0.26411666 0.73588334 0.44444444
        0.19489999 0.93078333 0.55555556
        0.26411666 0.86156666 0.33333333
        0.06921667 0.93078333 0.44444444
        0.13843334 0.73588334 0.55555556
        0.06921667 0.80510001 0.66666667
        0.26411666 0.73588334 0.77777778
        0.19489999 0.93078333 0.88888889
        0.26411666 0.86156666 0.66666667
        0.06921667 0.93078333 0.77777778
        0.13843334 0.73588334 0.88888889
        0.40255000 0.13843334 0.00000000
        0.59745000 0.06921667 0.11111111
        0.52823333 0.26411666 0.22222222
        0.59745000 0.19489999 0.00000000
        0.40255000 0.26411666 0.11111111
        0.47176667 0.06921667 0.22222222
        0.40255000 0.13843334 0.33333333
        0.59745000 0.06921667 0.44444444
        0.52823333 0.26411666 0.55555556
        0.59745000 0.19489999 0.33333333
        0.40255000 0.26411666 0.44444444
        0.47176667 0.06921667 0.55555556
        0.40255000 0.13843334 0.66666667
        0.59745000 0.06921667 0.77777778
        0.52823333 0.26411666 0.88888889
        0.59745000 0.19489999 0.66666667
        0.40255000 0.26411666 0.77777778
        0.47176667 0.06921667 0.88888889
        0.40255000 0.47176667 0.00000000
        0.59745000 0.40255000 0.11111111
        0.52823333 0.59745000 0.22222222
        0.59745000 0.52823333 0.00000000
        0.40255000 0.59745000 0.11111111
        0.47176667 0.40255000 0.22222222
        0.40255000 0.47176667 0.33333333
        0.59745000 0.40255000 0.44444444
        0.52823333 0.59745000 0.55555556
        0.59745000 0.52823333 0.33333333
        0.40255000 0.59745000 0.44444444
        0.47176667 0.40255000 0.55555556
        0.40255000 0.47176667 0.66666667
        0.59745000 0.40255000 0.77777778
        0.52823333 0.59745000 0.88888889
        0.59745000 0.52823333 0.66666667
        0.40255000 0.59745000 0.77777778
        0.47176667 0.40255000 0.88888889
        0.40255000 0.80510001 0.00000000
        0.59745000 0.73588334 0.11111111
        0.52823333 0.93078333 0.22222222
        0.59745000 0.86156666 0.00000000
        0.40255000 0.93078333 0.11111111
        0.47176667 0.73588334 0.22222222
        0.40255000 0.80510001 0.33333333
        0.59745000 0.73588334 0.44444444
        0.52823333 0.93078333 0.55555556
        0.59745000 0.86156666 0.33333333
        0.40255000 0.93078333 0.44444444
        0.47176667 0.73588334 0.55555556
        0.40255000 0.80510001 0.66666667
        0.59745000 0.73588334 0.77777778
        0.52823333 0.93078333 0.88888889
        0.59745000 0.86156666 0.66666667
        0.40255000 0.93078333 0.77777778
        0.47176667 0.73588334 0.88888889
        0.73588334 0.13843334 0.00000000
        0.93078333 0.06921667 0.11111111
        0.86156666 0.26411666 0.22222222
        0.93078333 0.19489999 0.00000000
        0.73588334 0.26411666 0.11111111
        0.80510001 0.06921667 0.22222222
        0.73588334 0.13843334 0.33333333
        0.93078333 0.06921667 0.44444444
        0.86156666 0.26411666 0.55555556
        0.93078333 0.19489999 0.33333333
        0.73588334 0.26411666 0.44444444
        0.80510001 0.06921667 0.55555556
        0.73588334 0.13843334 0.66666667
        0.93078333 0.06921667 0.77777778
        0.86156666 0.26411666 0.88888889
        0.93078333 0.19489999 0.66666667
        0.73588334 0.26411666 0.77777778
        0.80510001 0.06921667 0.88888889
        0.73588334 0.47176667 0.00000000
        0.93078333 0.40255000 0.11111111
        0.86156666 0.59745000 0.22222222
        0.93078333 0.52823333 0.00000000
        0.73588334 0.59745000 0.11111111
        0.80510001 0.40255000 0.22222222
        0.73588334 0.47176667 0.33333333
        0.93078333 0.40255000 0.44444444
        0.86156666 0.59745000 0.55555556
        0.93078333 0.52823333 0.33333333
        0.73588334 0.59745000 0.44444444
        0.80510001 0.40255000 0.55555556
        0.73588334 0.47176667 0.66666667
        0.93078333 0.40255000 0.77777778
        0.86156666 0.59745000 0.88888889
        0.93078333 0.52823333 0.66666667
        0.73588334 0.59745000 0.77777778
        0.80510001 0.40255000 0.88888889
        0.73588334 0.80510001 0.00000000
        0.93078333 0.73588334 0.11111111
        0.86156666 0.93078333 0.22222222
        0.93078333 0.86156666 0.00000000
        0.73588334 0.93078333 0.11111111
        0.80510001 0.73588334 0.22222222
        0.73588334 0.80510001 0.33333333
        0.93078333 0.73588334 0.44444444
        0.86156666 0.93078333 0.55555556
        0.93078333 0.86156666 0.33333333
        0.73588334 0.93078333 0.44444444
        0.80510001 0.73588334 0.55555556
        0.73588334 0.80510001 0.66666667
        0.93078333 0.73588334 0.77777778
        0.86156666 0.93078333 0.88888889
        0.93078333 0.86156666 0.66666667
        0.73588334 0.93078333 0.77777778
        0.80510001 0.73588334 0.88888889
        0.16666667 0.00000000 0.16666667
        0.16666667 0.16666667 0.27777778
        -0.00000000 0.16666667 0.05555556
        0.16666667 0.00000000 0.50000000
        0.16666667 0.16666667 0.61111111
        -0.00000000 0.16666667 0.38888889
        0.16666667 0.00000000 0.83333333
        0.16666667 0.16666667 0.94444444
        -0.00000000 0.16666667 0.72222222
        0.16666667 0.33333333 0.16666667
        0.16666667 0.50000000 0.27777778
        -0.00000000 0.50000000 0.05555556
        0.16666667 0.33333333 0.50000000
        0.16666667 0.50000000 0.61111111
        -0.00000000 0.50000000 0.38888889
        0.16666667 0.33333333 0.83333333
        0.16666667 0.50000000 0.94444444
        -0.00000000 0.50000000 0.72222222
        0.16666667 0.66666667 0.16666667
        0.16666667 0.83333333 0.27777778
        -0.00000000 0.83333333 0.05555556
        0.16666667 0.66666667 0.50000000
        0.16666667 0.83333333 0.61111111
        -0.00000000 0.83333333 0.38888889
        0.16666667 0.66666667 0.83333333
        0.16666667 0.83333333 0.94444444
        -0.00000000 0.83333333 0.72222222
        0.50000000 0.00000000 0.16666667
        0.50000000 0.16666667 0.27777778
        0.33333333 0.16666667 0.05555556
        0.50000000 0.00000000 0.50000000
        0.50000000 0.16666667 0.61111111
        0.33333333 0.16666667 0.38888889
        0.50000000 0.00000000 0.83333333
        0.50000000 0.16666667 0.94444444
        0.33333333 0.16666667 0.72222222
        0.50000000 0.33333333 0.16666667
        0.50000000 0.50000000 0.27777778
        0.33333333 0.50000000 0.05555556
        0.50000000 0.33333333 0.50000000
        0.50000000 0.50000000 0.61111111
        0.33333333 0.50000000 0.38888889
        0.50000000 0.33333333 0.83333333
        0.50000000 0.50000000 0.94444444
        0.33333333 0.50000000 0.72222222
        0.50000000 0.66666667 0.16666667
        0.50000000 0.83333333 0.27777778
        0.33333333 0.83333333 0.05555556
        0.50000000 0.66666667 0.50000000
        0.50000000 0.83333333 0.61111111
        0.33333333 0.83333333 0.38888889
        0.50000000 0.66666667 0.83333333
        0.50000000 0.83333333 0.94444444
        0.33333333 0.83333333 0.72222222
        0.83333333 0.00000000 0.16666667
        0.83333333 0.16666667 0.27777778
        0.66666667 0.16666667 0.05555556
        0.83333333 0.00000000 0.50000000
        0.83333333 0.16666667 0.61111111
        0.66666667 0.16666667 0.38888889
        0.83333333 0.00000000 0.83333333
        0.83333333 0.16666667 0.94444444
        0.66666667 0.16666667 0.72222222
        0.83333333 0.33333333 0.16666667
        0.83333333 0.50000000 0.27777778
        0.66666667 0.50000000 0.05555556
        0.83333333 0.33333333 0.50000000
        0.83333333 0.50000000 0.61111111
        0.66666667 0.50000000 0.38888889
        0.83333333 0.33333333 0.83333333
        0.83333333 0.50000000 0.94444444
        0.66666667 0.50000000 0.72222222
        0.83333333 0.66666667 0.16666667
        0.83333333 0.83333333 0.27777778
        0.66666667 0.83333333 0.05555556
        0.83333333 0.66666667 0.50000000
        0.83333333 0.83333333 0.61111111
        0.66666667 0.83333333 0.38888889
        0.83333333 0.66666667 0.83333333
        0.83333333 0.83333333 0.94444444
        0.66666667 0.83333333 0.72222222

