(Si O2)81  (P1) ~ 3x3x3Supersel (VASP)
    1.0
            14.99160000 0.00000000 0.00000000 
            -7.49579937 12.98310681 0.00000000 
            0.00000060 0.00000104 16.37129970 
  162 81
Direct
        0.06915000 0.13830000 0.00000000
        0.26418333 0.06915000 0.11111111
        0.19503333 0.26418333 0.22222222
        0.26418333 0.19503333 0.00000000
        0.06915000 0.26418333 0.11111111
        0.13830000 0.06915000 0.22222222
        0.06915000 0.13830000 0.33333333
        0.26418333 0.06915000 0.44444444
        0.19503333 0.26418333 0.55555556
        0.26418333 0.19503333 0.33333333
        0.06915000 0.26418333 0.44444444
        0.13830000 0.06915000 0.55555556
        0.06915000 0.13830000 0.66666667
        0.26418333 0.06915000 0.77777778
        0.19503333 0.26418333 0.88888889
        0.26418333 0.19503333 0.66666667
        0.06915000 0.26418333 0.77777778
        0.13830000 0.06915000 0.88888889
        0.06915000 0.47163333 0.00000000
        0.26418333 0.40248333 0.11111111
        0.19503333 0.59751667 0.22222222
        0.26418333 0.52836667 0.00000000
        0.06915000 0.59751667 0.11111111
        0.13830000 0.40248333 0.22222222
        0.06915000 0.47163333 0.33333333
        0.26418333 0.40248333 0.44444444
        0.19503333 0.59751667 0.55555556
        0.26418333 0.52836667 0.33333333
        0.06915000 0.59751667 0.44444444
        0.13830000 0.40248333 0.55555556
        0.06915000 0.47163333 0.66666667
        0.26418333 0.40248333 0.77777778
        0.19503333 0.59751667 0.88888889
        0.26418333 0.52836667 0.66666667
        0.06915000 0.59751667 0.77777778
        0.13830000 0.40248333 0.88888889
        0.06915000 0.80496667 0.00000000
        0.26418333 0.73581667 0.11111111
        0.19503333 0.93085000 0.22222222
        0.26418333 0.86170000 0.00000000
        0.06915000 0.93085000 0.11111111
        0.13830000 0.73581667 0.22222222
        0.06915000 0.80496667 0.33333333
        0.26418333 0.73581667 0.44444444
        0.19503333 0.93085000 0.55555556
        0.26418333 0.86170000 0.33333333
        0.06915000 0.93085000 0.44444444
        0.13830000 0.73581667 0.55555556
        0.06915000 0.80496667 0.66666667
        0.26418333 0.73581667 0.77777778
        0.19503333 0.93085000 0.88888889
        0.26418333 0.86170000 0.66666667
        0.06915000 0.93085000 0.77777778
        0.13830000 0.73581667 0.88888889
        0.40248333 0.13830000 0.00000000
        0.59751667 0.06915000 0.11111111
        0.52836667 0.26418333 0.22222222
        0.59751667 0.19503333 0.00000000
        0.40248333 0.26418333 0.11111111
        0.47163333 0.06915000 0.22222222
        0.40248333 0.13830000 0.33333333
        0.59751667 0.06915000 0.44444444
        0.52836667 0.26418333 0.55555556
        0.59751667 0.19503333 0.33333333
        0.40248333 0.26418333 0.44444444
        0.47163333 0.06915000 0.55555556
        0.40248333 0.13830000 0.66666667
        0.59751667 0.06915000 0.77777778
        0.52836667 0.26418333 0.88888889
        0.59751667 0.19503333 0.66666667
        0.40248333 0.26418333 0.77777778
        0.47163333 0.06915000 0.88888889
        0.40248333 0.47163333 0.00000000
        0.59751667 0.40248333 0.11111111
        0.52836667 0.59751667 0.22222222
        0.59751667 0.52836667 0.00000000
        0.40248333 0.59751667 0.11111111
        0.47163333 0.40248333 0.22222222
        0.40248333 0.47163333 0.33333333
        0.59751667 0.40248333 0.44444444
        0.52836667 0.59751667 0.55555556
        0.59751667 0.52836667 0.33333333
        0.40248333 0.59751667 0.44444444
        0.47163333 0.40248333 0.55555556
        0.40248333 0.47163333 0.66666667
        0.59751667 0.40248333 0.77777778
        0.52836667 0.59751667 0.88888889
        0.59751667 0.52836667 0.66666667
        0.40248333 0.59751667 0.77777778
        0.47163333 0.40248333 0.88888889
        0.40248333 0.80496667 0.00000000
        0.59751667 0.73581667 0.11111111
        0.52836667 0.93085000 0.22222222
        0.59751667 0.86170000 0.00000000
        0.40248333 0.93085000 0.11111111
        0.47163333 0.73581667 0.22222222
        0.40248333 0.80496667 0.33333333
        0.59751667 0.73581667 0.44444444
        0.52836667 0.93085000 0.55555556
        0.59751667 0.86170000 0.33333333
        0.40248333 0.93085000 0.44444444
        0.47163333 0.73581667 0.55555556
        0.40248333 0.80496667 0.66666667
        0.59751667 0.73581667 0.77777778
        0.52836667 0.93085000 0.88888889
        0.59751667 0.86170000 0.66666667
        0.40248333 0.93085000 0.77777778
        0.47163333 0.73581667 0.88888889
        0.73581667 0.13830000 0.00000000
        0.93085000 0.06915000 0.11111111
        0.86170000 0.26418333 0.22222222
        0.93085000 0.19503333 0.00000000
        0.73581667 0.26418333 0.11111111
        0.80496667 0.06915000 0.22222222
        0.73581667 0.13830000 0.33333333
        0.93085000 0.06915000 0.44444444
        0.86170000 0.26418333 0.55555556
        0.93085000 0.19503333 0.33333333
        0.73581667 0.26418333 0.44444444
        0.80496667 0.06915000 0.55555556
        0.73581667 0.13830000 0.66666667
        0.93085000 0.06915000 0.77777778
        0.86170000 0.26418333 0.88888889
        0.93085000 0.19503333 0.66666667
        0.73581667 0.26418333 0.77777778
        0.80496667 0.06915000 0.88888889
        0.73581667 0.47163333 0.00000000
        0.93085000 0.40248333 0.11111111
        0.86170000 0.59751667 0.22222222
        0.93085000 0.52836667 0.00000000
        0.73581667 0.59751667 0.11111111
        0.80496667 0.40248333 0.22222222
        0.73581667 0.47163333 0.33333333
        0.93085000 0.40248333 0.44444444
        0.86170000 0.59751667 0.55555556
        0.93085000 0.52836667 0.33333333
        0.73581667 0.59751667 0.44444444
        0.80496667 0.40248333 0.55555556
        0.73581667 0.47163333 0.66666667
        0.93085000 0.40248333 0.77777778
        0.86170000 0.59751667 0.88888889
        0.93085000 0.52836667 0.66666667
        0.73581667 0.59751667 0.77777778
        0.80496667 0.40248333 0.88888889
        0.73581667 0.80496667 0.00000000
        0.93085000 0.73581667 0.11111111
        0.86170000 0.93085000 0.22222222
        0.93085000 0.86170000 0.00000000
        0.73581667 0.93085000 0.11111111
        0.80496667 0.73581667 0.22222222
        0.73581667 0.80496667 0.33333333
        0.93085000 0.73581667 0.44444444
        0.86170000 0.93085000 0.55555556
        0.93085000 0.86170000 0.33333333
        0.73581667 0.93085000 0.44444444
        0.80496667 0.73581667 0.55555556
        0.73581667 0.80496667 0.66666667
        0.93085000 0.73581667 0.77777778
        0.86170000 0.93085000 0.88888889
        0.93085000 0.86170000 0.66666667
        0.73581667 0.93085000 0.77777778
        0.80496667 0.73581667 0.88888889
        0.16666667 0.00000000 0.16666667
        0.16666667 0.16666667 0.27777778
        0.00000000 0.16666667 0.05555556
        0.16666667 0.00000000 0.50000000
        0.16666667 0.16666667 0.61111111
        0.00000000 0.16666667 0.38888889
        0.16666667 0.00000000 0.83333333
        0.16666667 0.16666667 0.94444444
        0.00000000 0.16666667 0.72222222
        0.16666667 0.33333333 0.16666667
        0.16666667 0.50000000 0.27777778
        0.00000000 0.50000000 0.05555556
        0.16666667 0.33333333 0.50000000
        0.16666667 0.50000000 0.61111111
        0.00000000 0.50000000 0.38888889
        0.16666667 0.33333333 0.83333333
        0.16666667 0.50000000 0.94444444
        0.00000000 0.50000000 0.72222222
        0.16666667 0.66666667 0.16666667
        0.16666667 0.83333333 0.27777778
        0.00000000 0.83333333 0.05555556
        0.16666667 0.66666667 0.50000000
        0.16666667 0.83333333 0.61111111
        0.00000000 0.83333333 0.38888889
        0.16666667 0.66666667 0.83333333
        0.16666667 0.83333333 0.94444444
        0.00000000 0.83333333 0.72222222
        0.50000000 0.00000000 0.16666667
        0.50000000 0.16666667 0.27777778
        0.33333333 0.16666667 0.05555556
        0.50000000 0.00000000 0.50000000
        0.50000000 0.16666667 0.61111111
        0.33333333 0.16666667 0.38888889
        0.50000000 0.00000000 0.83333333
        0.50000000 0.16666667 0.94444444
        0.33333333 0.16666667 0.72222222
        0.50000000 0.33333333 0.16666667
        0.50000000 0.50000000 0.27777778
        0.33333333 0.50000000 0.05555556
        0.50000000 0.33333333 0.50000000
        0.50000000 0.50000000 0.61111111
        0.33333333 0.50000000 0.38888889
        0.50000000 0.33333333 0.83333333
        0.50000000 0.50000000 0.94444444
        0.33333333 0.50000000 0.72222222
        0.50000000 0.66666667 0.16666667
        0.50000000 0.83333333 0.27777778
        0.33333333 0.83333333 0.05555556
        0.50000000 0.66666667 0.50000000
        0.50000000 0.83333333 0.61111111
        0.33333333 0.83333333 0.38888889
        0.50000000 0.66666667 0.83333333
        0.50000000 0.83333333 0.94444444
        0.33333333 0.83333333 0.72222222
        0.83333333 0.00000000 0.16666667
        0.83333333 0.16666667 0.27777778
        0.66666667 0.16666667 0.05555556
        0.83333333 0.00000000 0.50000000
        0.83333333 0.16666667 0.61111111
        0.66666667 0.16666667 0.38888889
        0.83333333 0.00000000 0.83333333
        0.83333333 0.16666667 0.94444444
        0.66666667 0.16666667 0.72222222
        0.83333333 0.33333333 0.16666667
        0.83333333 0.50000000 0.27777778
        0.66666667 0.50000000 0.05555556
        0.83333333 0.33333333 0.50000000
        0.83333333 0.50000000 0.61111111
        0.66666667 0.50000000 0.38888889
        0.83333333 0.33333333 0.83333333
        0.83333333 0.50000000 0.94444444
        0.66666667 0.50000000 0.72222222
        0.83333333 0.66666667 0.16666667
        0.83333333 0.83333333 0.27777778
        0.66666667 0.83333333 0.05555556
        0.83333333 0.66666667 0.50000000
        0.83333333 0.83333333 0.61111111
        0.66666667 0.83333333 0.38888889
        0.83333333 0.66666667 0.83333333
        0.83333333 0.83333333 0.94444444
        0.66666667 0.83333333 0.72222222
